 vasp.5.4.4.18Apr17-6-g9f103f2a35 (build Jun 22 2020 09:36:46) gamma-only

 INCAR:
 POTCAR:    PAW_PBE Cs_sv 08Apr2002
 POTCAR:    PAW_PBE Pb_d 06Sep2000
 POTCAR:    PAW_PBE Br 06Sep2000
 POTCAR:    PAW_PBE Cs_sv 08Apr2002
 POTCAR:    PAW_PBE Pb_d 06Sep2000
 POTCAR:    PAW_PBE Br 06Sep2000
 POTCAR:    PAW_PBE Cs_sv 08Apr2002
   VRHFIN =Cs: 5s5p6s

   TITEL  = PAW_PBE Cs_sv 08Apr2002
   POMASS =  132.900; ZVAL   =    9.000    mass and valenz
   ENMAX  =  220.318; ENMIN  =  165.238 eV

   TITEL  = PAW_PBE Pb_d 06Sep2000
   POMASS =  207.200; ZVAL   =   14.000    mass and valenz
   ENMAX  =  237.835; ENMIN  =  178.376 eV

   TITEL  = PAW_PBE Br 06Sep2000
   POMASS =   79.904; ZVAL   =    7.000    mass and valenz
   ENMAX  =  216.285; ENMIN  =  162.214 eV

   TITEL  = PAW_PBE Cs_sv 08Apr2002
   POMASS =  132.900; ZVAL   =    9.000    mass and valenz
   ENMAX  =  220.318; ENMIN  =  165.238 eV

   TITEL  = PAW_PBE Pb_d 06Sep2000
   POMASS =  207.200; ZVAL   =   14.000    mass and valenz
   ENMAX  =  237.835; ENMIN  =  178.376 eV

   TITEL  = PAW_PBE Br 06Sep2000
   POMASS =   79.904; ZVAL   =    7.000    mass and valenz
   ENMAX  =  216.285; ENMIN  =  162.214 eV

 Optimization of the real space projectors (new method)

 maximal supplied QI-value         = 15.12
 optimisation between [QCUT,QGAM] = [  8.77, 17.69] = [ 21.53, 87.61] Ry
 Optimized for a Real-space Cutoff    1.85 Angstroem

   l    n(q)    QCUT    max X(q) W(low)/X(q) W(high)/X(q)  e(spline)
   0     10     8.768    25.322    0.81E-04    0.51E-04    0.48E-06
   0     10     8.768    99.187    0.78E-04    0.50E-04    0.47E-06
   1      9     8.768    11.761    0.21E-03    0.20E-03    0.37E-06
   1      9     8.768     8.275    0.24E-03    0.22E-03    0.41E-06
   2      9     8.768     3.829    0.23E-04    0.15E-03    0.18E-06
 Optimization of the real space projectors (new method)

[...]

   l    n(q)    QCUT    max X(q) W(low)/X(q) W(high)/X(q)  e(spline)
   2      7     8.768     3.846    0.48E-04    0.11E-03    0.11E-06
   2      7     8.768     8.593    0.20E-03    0.22E-04    0.24E-06
   0      8     8.768    20.082    0.68E-04    0.88E-04    0.41E-07
   0      8     8.768     8.597    0.89E-04    0.13E-03    0.59E-07
   1      8     8.768    33.223    0.15E-03    0.53E-04    0.87E-07
   1      8     8.768    15.899    0.14E-03    0.44E-04    0.78E-07
 Optimization of the real space projectors (new method)

 maximal supplied QI-value         = 17.95
 optimisation between [QCUT,QGAM] = [  8.80, 17.59] = [ 21.67, 86.68] Ry
 Optimized for a Real-space Cutoff    1.59 Angstroem

   l    n(q)    QCUT    max X(q) W(low)/X(q) W(high)/X(q)  e(spline)
   0      8     8.797   175.082    0.82E-04    0.14E-03    0.89E-07
   0      8     8.797   174.004    0.79E-04    0.14E-03    0.86E-07
   1      8     8.797    54.315    0.16E-03    0.14E-04    0.30E-06
   1      8     8.797    42.441    0.16E-03    0.14E-04    0.30E-06
   2      7     8.797     3.596    0.92E-04    0.15E-03    0.85E-07
  PAW_PBE Cs_sv 08Apr2002               :
  PAW_PBE Pb_d 06Sep2000                :
  PAW_PBE Br 06Sep2000                  :
  PAW_PBE Cs_sv 08Apr2002               :
  PAW_PBE Pb_d 06Sep2000                :
  PAW_PBE Br 06Sep2000                  :

 POSCAR: Cs64 Pb64 Br191
  positions in direct lattice
  velocities in cartesian coordinates

 METAGGA = SCAN     LMAXTAU =  6    LMIXTAU =  F

 VTST: version 3.2, (02/03/18)

 CHAIN: initializing optimizer

 OPT: Using VASP Conjugate-Gradient optimizer
 CHAIN: Read ICHAIN            0

 POSCAR: Cs64 Pb64 Br191
  positions in direct lattice
  velocities in cartesian coordinates

 ion  position               nearest neighbor table
   1  0.886  0.875  0.353-
   2  0.137  0.875  0.604-
   3  0.886  0.375  0.352-
   4  0.138  0.375  0.605-
   5  0.887  0.875  0.854-
   6  0.136  0.875  0.104-
   7  0.386  0.875  0.354-
   8  0.635  0.875  0.604-
   9  0.887  0.375  0.854-
  10  0.136  0.375  0.103-
  11  0.386  0.875  0.854-
  12  0.636  0.875  0.104-
  13  0.386  0.375  0.854-
  14  0.636  0.375  0.104-
  15  0.104  0.125  0.386-
  16  0.354  0.125  0.636-
  17  0.105  0.625  0.386-
  18  0.104  0.125  0.887-
  19  0.354  0.125  0.136-
  20  0.603  0.125  0.386-
  21  0.854  0.125  0.637-
  22  0.104  0.625  0.886-
  23  0.354  0.625  0.136-
  24  0.860  0.626  0.643-
  25  0.604  0.125  0.886-
  26  0.854  0.125  0.136-
  27  0.604  0.625  0.887-
  28  0.854  0.625  0.136-
  29  0.897  0.875  0.114-
  30  0.147  0.875  0.364-
  31  0.897  0.375  0.114-
  32  0.147  0.375  0.364-
  33  0.900  0.875  0.617-
  34  0.147  0.875  0.864-
  35  0.396  0.875  0.114-
  36  0.646  0.875  0.363-
  37  0.900  0.375  0.618-
  38  0.147  0.375  0.864-
  39  0.396  0.375  0.114-
  40  0.397  0.875  0.614-
  41  0.647  0.875  0.864-
  42  0.646  0.375  0.864-
  43  0.114  0.125  0.147-
  44  0.364  0.125  0.396-
  45  0.114  0.625  0.147-
  46  0.114  0.125  0.646-
  47  0.364  0.125  0.897-
  48  0.614  0.125  0.146-
  49  0.865  0.125  0.396-
  50  0.115  0.625  0.647-
  51  0.364  0.625  0.897-
  52  0.614  0.625  0.146-
  53  0.871  0.625  0.390-
  54  0.614  0.125  0.647-
  55  0.864  0.125  0.897-
  56  0.865  0.625  0.898-
  57  0.750  0.750  0.249- 252 2.98 132 2.99 143 3.00 225 3.00 310 3.01 203 3.04
  58  0.000  0.750  0.500- 226 2.98 144 2.99 241 3.00 200 3.00 133 3.00 220 3.07
  59  0.750  0.250  0.250- 141 2.99 250 2.99 136 3.00 227 3.01 216 3.01 207 3.03
  60  0.000  0.251  0.500- 142 2.99 228 3.00 239 3.00 204 3.01 137 3.01 217 3.02
  61  0.750  0.750  0.750- 209 2.99 149 2.99 138 3.00 223 3.01 229 3.01 315 3.06
  62  0.000  0.750  0.000- 150 2.99 139 3.00 230 3.00 197 3.01 247 3.01 224 3.01
  63  0.250  0.750  0.250- 127 2.99 300 3.00 248 3.00 213 3.01 231 3.01 198 3.01
  64  0.500  0.750  0.500- 128 2.99 311 2.99 301 3.00 208 3.00 314 3.01 232 3.06
  65  0.750  0.251  0.750- 145 2.99 210 3.00 233 3.00 221 3.01 298 3.01 246 3.02
  66  0.000  0.250  0.000- 146 2.99 140 3.00 234 3.00 199 3.00 243 3.01 222 3.01
  67  0.250  0.751  0.750- 130 2.99 153 2.99 201 3.00 218 3.01 236 3.01 242 3.01
  68  0.500  0.751  0.000- 131 2.99 154 3.00 251 3.00 219 3.00 237 3.01 202 3.01
  69  0.250  0.250  0.750- 151 2.99 134 3.00 205 3.00 312 3.01 240 3.01 214 3.01
  70  0.500  0.250  0.000- 152 2.99 135 3.00 215 3.01 249 3.01 206 3.01 238 3.01
  71  0.001  0.751  0.250- 155 2.99 197 2.99 115 3.00 213 3.00 241 3.01 225 3.01
  72  0.250  0.750  0.500- 116 2.99 156 3.00 242 3.00 198 3.01 311 3.02 226 3.02
  73  0.000  0.250  0.250- 113 2.99 157 3.00 211 3.00 199 3.00 227 3.01 239 3.01
  74  0.001  0.751  0.751- 158 2.99 121 2.99 218 2.99 247 3.00 200 3.02 229 3.02
  75  0.250  0.750  0.000- 122 2.99 159 3.00 230 3.01 219 3.01 201 3.01 248 3.01
  76  0.500  0.751  0.250- 160 2.99 231 2.99 202 2.99 123 3.00 310 3.02 314 3.03
  77  0.752  0.755  0.501- 161 2.80 220 2.98 203 2.99 232 2.99 315 3.00
  78  0.000  0.250  0.750- 117 2.98 214 3.00 162 3.00 243 3.00 233 3.02 204 3.02
  79  0.250  0.250  0.000- 118 2.99 163 3.00 234 3.01 215 3.01 205 3.01 244 3.01
  80  0.750  0.249  0.500- 120 2.96 313 2.98 246 2.99 217 2.99 207 3.00 164 3.13
  81  0.500  0.751  0.751- 165 2.99 236 2.99 297 3.00 251 3.00 208 3.02 223 3.02
  82  0.750  0.751  0.000- 126 2.99 166 3.00 237 3.00 224 3.00 209 3.02 252 3.02
  83  0.500  0.250  0.750- 124 2.99 249 3.00 312 3.00 167 3.00 221 3.01 308 3.01
  84  0.750  0.250  0.000- 125 2.99 168 3.00 238 3.00 222 3.00 210 3.01 250 3.02
  85  0.000  0.000  0.250- 113 2.99 155 2.99 253 3.00 267 3.00 169 3.01 183 3.01
  86  0.250  0.000  0.500- 156 3.00 114 3.00 268 3.00 184 3.01 170 3.01 254 3.01
  87  0.001  0.500  0.250- 157 2.98 269 3.00 255 3.00 115 3.00 185 3.01 171 3.01
  88  0.000  0.001  0.750- 117 2.99 158 2.99 256 3.00 187 3.00 173 3.01 270 3.02
  89  0.250  0.000  0.000- 159 2.99 118 3.00 174 3.01 257 3.01 188 3.01 271 3.01
  90  0.500  0.001  0.250- 119 2.99 160 3.00 175 3.00 272 3.00 258 3.01 189 3.01
  91  0.750  0.002  0.500- 120 2.96 176 2.99 190 2.99 259 2.99 273 3.00 161 3.13
  92  0.001  0.500  0.751- 162 2.98 260 2.99 121 2.99 191 3.00 274 3.02 177 3.02
  93  0.250  0.500  0.000- 163 2.99 122 3.00 178 3.01 192 3.01 261 3.01 275 3.01
  94  0.753  0.495  0.502- 164 2.80 262 2.98 307 2.99 305 3.00 277 3.00
  95  0.500  0.000  0.750- 165 2.99 124 3.00 180 3.00 193 3.00 263 3.01 278 3.01
  96  0.750  0.000  0.000- 166 3.00 125 3.00 181 3.00 264 3.00 194 3.01 279 3.01
  97  0.500  0.500  0.751- 167 2.99 304 3.00 195 3.00 297 3.00 318 3.02 265 3.02
  98  0.750  0.500  0.000- 168 2.99 126 3.00 182 3.00 266 3.00 280 3.02 196 3.02
  99  0.750  0.001  0.250- 194 2.99 132 3.00 141 3.00 258 3.01 169 3.01 273 3.03
 100  0.000  0.000  0.500- 170 3.00 183 3.00 142 3.00 133 3.00 270 3.01 259 3.02
 101  0.750  0.500  0.250- 196 2.98 136 2.98 171 3.00 316 3.01 143 3.01 277 3.05
 102  0.001  0.500  0.500- 172 2.99 137 2.99 274 3.00 185 3.00 144 3.01 262 3.05
 103  0.750  0.000  0.750- 279 2.99 145 3.00 138 3.00 263 3.00 173 3.01 190 3.02
 104  0.000  0.000  0.000- 139 2.99 146 3.00 267 3.01 174 3.01 187 3.01 264 3.01
 105  0.250  0.001  0.250- 127 3.00 147 3.00 188 3.00 253 3.01 268 3.01 175 3.01
 106  0.500  0.001  0.500- 254 2.99 128 2.99 148 3.00 189 3.00 278 3.00 176 3.04
 107  0.750  0.501  0.751- 280 2.99 298 2.99 149 3.00 265 3.00 177 3.01 307 3.06
 108  0.000  0.500  0.000- 140 2.99 150 3.00 178 3.00 191 3.01 269 3.01 266 3.01
 109  0.250  0.000  0.750- 130 2.99 151 3.00 271 3.00 184 3.01 256 3.01 180 3.01
 110  0.500  0.001  0.000- 131 2.99 152 3.00 257 3.00 193 3.01 272 3.01 181 3.01
 111  0.250  0.500  0.750- 134 2.99 275 3.00 153 3.00 260 3.01 304 3.01 186 3.01
 112  0.500  0.500  0.000- 135 2.99 195 3.00 154 3.00 261 3.00 182 3.01 276 3.01
 113  0.984  0.125  0.231-  73 2.99  85 2.99
 114  0.234  0.126  0.481- 292 2.99  86 3.00
 115  0.984  0.625  0.233-  71 3.00  87 3.00
 116  0.234  0.625  0.481-  72 2.99 294 3.00
[...]
 266  0.876  0.518  0.026-  98 3.00 108 3.01
 267  0.026  0.982  0.126-  85 3.00 104 3.01
 268  0.276  0.982  0.376-  86 3.00 105 3.01
 269  0.026  0.482  0.126-  87 3.00 108 3.01
 270  0.026  0.982  0.626- 100 3.01  88 3.02
 271  0.276  0.982  0.876- 109 3.00  89 3.01
 272  0.526  0.982  0.126-  90 3.00 110 3.01
 273  0.775  0.982  0.377-  91 3.00  99 3.03
 274  0.026  0.482  0.626- 102 3.00  92 3.02
 275  0.276  0.482  0.876- 111 3.00  93 3.01
 276  0.526  0.482  0.126- 293 2.99 112 3.01
 277  0.778  0.486  0.378-  94 3.00 101 3.05
 278  0.526  0.982  0.626- 106 3.00  95 3.01
 279  0.776  0.982  0.876- 103 2.99  96 3.01
 280  0.776  0.482  0.876- 107 2.99  98 3.02
 281  0.387  0.375  0.356-
 282  0.634  0.375  0.604-
 283  0.593  0.625  0.379-
 284  0.354  0.625  0.638-
 285  0.398  0.375  0.614-
 286  0.646  0.376  0.364-
 287  0.612  0.625  0.653-
 288  0.362  0.625  0.396-
 289  0.250  0.250  0.250- 147 2.99 129 3.00 244 3.00 235 3.01 211 3.01 309 3.01
 290  0.500  0.250  0.500- 148 2.99 212 2.99 245 3.00 308 3.00 299 3.01 313 3.04
 291  0.500  0.250  0.250- 119 2.99 235 3.00 302 3.00 206 3.00 216 3.01 245 3.02
 292  0.250  0.250  0.500- 114 2.99 309 3.00 303 3.01 240 3.01 228 3.01 212 3.02
 293  0.500  0.499  0.250- 302 2.98 179 2.99 276 2.99 123 3.01 316 3.02 306 3.03
[...]
   0.332E+02 0.298E+01 0.119E+02   -.331E+02 -.295E+01 -.120E+02   -.961E-01 -.207E-01 0.822E-01   0.457E-04 -.394E-03 0.409E-04
   0.321E+02 0.194E+01 0.115E+02   -.320E+02 -.191E+01 -.116E+02   -.103E+00 -.202E-01 0.796E-01   -.506E-03 -.112E-02 0.171E-03
   0.338E+02 -.297E+01 0.121E+02   -.337E+02 0.296E+01 -.122E+02   -.973E-01 0.122E-01 0.817E-01   -.365E-04 0.276E-03 0.458E-04
   0.324E+02 -.194E+01 0.106E+02   -.323E+02 0.193E+01 -.107E+02   -.105E+00 0.119E-01 0.858E-01   -.191E-03 0.760E-03 0.297E-04
   0.287E+02 0.134E+02 0.331E+02   -.286E+02 -.133E+02 -.330E+02   -.925E-01 -.814E-01 -.121E+00   -.746E-04 -.637E-03 0.628E-03
   0.280E+02 0.263E+00 0.140E+02   -.279E+02 -.253E+00 -.141E+02   -.789E-01 -.450E-02 0.465E-01   -.335E-03 0.173E-03 -.378E-03
   0.279E+02 0.187E+01 0.834E+01   -.278E+02 -.185E+01 -.844E+01   -.787E-01 -.180E-01 0.942E-01   0.334E-03 0.450E-05 -.200E-03
   0.303E+02 0.178E+02 -.408E+01   -.302E+02 -.177E+02 0.387E+01   -.923E-01 -.434E-01 0.186E+00   0.403E-03 0.188E-03 -.134E-03
   0.286E+02 -.128E+02 0.328E+02   -.285E+02 0.127E+02 -.327E+02   -.917E-01 0.798E-01 -.120E+00   0.265E-03 0.999E-04 0.671E-03
   0.277E+02 -.483E+00 0.143E+02   -.276E+02 0.482E+00 -.144E+02   -.773E-01 0.728E-03 0.441E-01   -.128E-03 0.251E-03 -.447E-03
   0.283E+02 -.185E+01 0.742E+01   -.282E+02 0.184E+01 -.753E+01   -.745E-01 0.811E-02 0.951E-01   0.422E-03 0.125E-03 0.110E-03
   0.205E+02 0.444E+01 0.115E+02   -.204E+02 -.441E+01 -.116E+02   -.411E-01 -.233E-01 0.604E-01   -.244E-03 -.555E-03 -.725E-04
   0.230E+02 0.281E+01 0.139E+02   -.230E+02 -.279E+01 -.139E+02   -.471E-01 -.118E-01 0.702E-01   0.127E-03 -.543E-03 -.689E-04
   0.231E+02 -.280E+01 0.138E+02   -.231E+02 0.279E+01 -.139E+02   -.501E-01 0.374E-02 0.665E-01   -.353E-03 0.396E-03 -.221E-03
   -.257E+02 -.110E+00 0.116E+02   0.257E+02 0.117E+00 -.117E+02   0.585E-01 -.467E-02 0.690E-01   0.268E-03 -.232E-04 -.272E-03
   -.284E+02 -.529E+00 0.891E+01   0.284E+02 0.534E+00 -.902E+01   0.749E-01 -.308E-02 0.981E-01   0.498E-04 0.371E-04 -.404E-03
   -.237E+02 0.155E+00 0.131E+02   0.237E+02 -.149E+00 -.131E+02   0.270E-01 -.320E-02 0.514E-01   -.610E-03 -.163E-03 0.248E-03
   -.290E+02 -.233E+00 0.157E+02   0.289E+02 0.239E+00 -.158E+02   0.724E-01 -.379E-02 0.494E-01   -.261E-03 0.221E-03 -.372E-03
   -.297E+02 -.206E+00 0.114E+02   0.296E+02 0.213E+00 -.115E+02   0.860E-01 -.345E-02 0.756E-01   -.126E-03 -.204E-03 -.278E-03
   -.270E+02 -.512E+00 0.851E+01   0.269E+02 0.520E+00 -.862E+01   0.748E-01 -.463E-02 0.953E-01   -.161E-03 0.193E-03 -.369E-03
   -.227E+02 -.518E+00 0.138E+02   0.228E+02 0.522E+00 -.139E+02   -.380E-01 -.170E-02 0.432E-01   0.494E-03 0.274E-03 0.298E-05
   -.262E+02 0.193E+00 0.214E+02   0.262E+02 -.188E+00 -.214E+02   0.516E-01 -.258E-02 0.423E-01   0.437E-03 0.148E-04 -.519E-03
   -.292E+02 0.278E+00 0.107E+02   0.291E+02 -.267E+00 -.108E+02   0.890E-01 -.665E-02 0.796E-01   0.769E-03 -.111E-03 -.374E-03
   -.232E+02 0.533E+00 0.184E+00   0.232E+02 -.528E+00 -.302E+00   0.657E-01 -.256E-02 0.104E+00   0.322E-03 -.181E-03 -.225E-03
   0.533E+02 0.417E+00 0.296E+02   -.528E+02 -.417E+00 -.295E+02   -.494E+00 0.276E-02 -.114E+00   0.658E-03 0.351E-03 0.245E-03
   -.329E+02 0.101E+00 0.129E+02   0.328E+02 -.931E-01 -.130E+02   0.124E+00 -.614E-02 0.746E-01   -.137E-03 -.604E-04 0.117E-03
   -.275E+02 -.228E+00 0.151E+02   0.275E+02 0.236E+00 -.151E+02   0.782E-01 -.517E-02 0.465E-01   0.391E-03 -.118E-03 -.116E-03
   -.286E+02 0.247E+00 0.189E+02   0.285E+02 -.239E+00 -.189E+02   0.873E-01 -.606E-02 0.515E-01   -.737E-04 0.443E-03 -.140E-03
   0.330E+02 0.168E+02 -.236E+02   -.335E+02 -.168E+02 0.241E+02   0.441E+00 -.393E-01 -.486E+00   0.104E-02 -.517E-03 0.805E-04
   0.287E+02 0.767E+01 0.240E+02   -.296E+02 -.764E+01 -.246E+02   0.836E+00 -.280E-01 0.525E+00   0.979E-03 -.858E-03 0.301E-04
   0.899E+01 -.981E+01 -.610E+01   -.921E+01 0.100E+02 0.635E+01   0.210E+00 -.203E+00 -.255E+00   0.776E-04 0.361E-03 -.219E-04
   0.362E+01 -.942E+01 0.632E+01   -.378E+01 0.962E+01 -.643E+01   0.155E+00 -.197E+00 0.106E+00   -.273E-03 0.261E-03 0.485E-03
[...]
   0.181E+02 -.171E+02 0.144E+02   -.183E+02 0.173E+02 -.147E+02   0.196E+00 -.140E+00 0.274E+00   -.665E-03 0.200E-03 -.477E-03
   -.225E+01 -.513E+02 0.481E+02   0.200E+01 0.516E+02 -.483E+02   0.227E+00 -.249E+00 0.160E+00   -.350E-03 0.281E-03 0.426E-03
   -.244E+02 -.209E+02 -.263E+02   0.246E+02 0.210E+02 0.266E+02   -.184E+00 -.163E+00 -.235E+00   0.292E-03 0.639E-04 -.148E-03
   -.212E+02 -.193E+02 -.264E+02   0.214E+02 0.194E+02 0.266E+02   -.208E+00 -.167E+00 -.220E+00   0.250E-03 -.166E-04 -.285E-03
   0.251E+02 0.251E+02 -.471E+02   -.253E+02 -.252E+02 0.473E+02   0.195E+00 0.153E+00 -.198E+00   0.357E-03 -.238E-03 -.341E-03
   0.155E+02 0.221E+02 -.293E+02   -.158E+02 -.223E+02 0.295E+02   0.240E+00 0.198E+00 -.213E+00   -.787E-03 -.110E-02 -.347E-03
   -.236E+02 -.196E+02 0.267E+02   0.238E+02 0.198E+02 -.270E+02   -.199E+00 -.182E+00 0.236E+00   0.320E-04 0.319E-03 -.505E-05
   -.204E+02 -.278E+02 0.257E+02   0.205E+02 0.280E+02 -.260E+02   -.144E+00 -.184E+00 0.273E+00   -.319E-05 0.100E-03 0.588E-05
   0.182E+02 0.185E+02 0.142E+02   -.184E+02 -.187E+02 -.145E+02   0.198E+00 0.145E+00 0.275E+00   -.565E-03 -.457E-03 -.343E-03
   -.285E+01 0.505E+02 0.472E+02   0.263E+01 -.507E+02 -.474E+02   0.212E+00 0.223E+00 0.162E+00   -.373E-03 -.225E-03 0.637E-03
   0.252E+02 -.243E+02 -.473E+02   -.254E+02 0.244E+02 0.475E+02   0.194E+00 -.153E+00 -.194E+00   0.198E-03 0.149E-03 -.563E-03
   0.158E+02 -.206E+02 -.285E+02   -.161E+02 0.208E+02 0.287E+02   0.246E+00 -.196E+00 -.195E+00   -.436E-03 0.107E-02 -.552E-03
   -.355E+02 0.937E+01 -.274E+02   0.356E+02 -.953E+01 0.277E+02   -.183E+00 0.151E+00 -.243E+00   -.268E-04 0.579E-03 -.479E-03
   -.213E+02 0.174E+02 -.277E+02   0.215E+02 -.176E+02 0.280E+02   -.202E+00 0.179E+00 -.219E+00   0.734E-04 0.569E-03 -.599E-04
   0.825E+00 0.397E+01 -.225E+01   0.154E-11 0.284E-13 0.405E-11   -.830E+00 -.422E+01 0.138E+01   -.255E-03 0.153E-02 -.843E-02

 POSITION                                       TOTAL-FORCE (eV/Angst)
      8.98976     20.59651     20.01633        -0.001989      0.000375      0.002296
     -7.87564     20.59254     11.97270        -0.001930      0.000299      0.002051
      8.99245      8.82411     20.00939        -0.002340      0.000136      0.001501
     -7.85942      8.82544     11.99319        -0.001407     -0.000486     -0.000033
      0.54166     20.59529     28.12484        -0.001904     -0.000102      0.001051
      0.54764     20.59323      3.88029        -0.001103      0.000272      0.000774
      0.53329     20.59496     11.95536        -0.000412      0.000252      0.001550
      0.51729     20.59297     20.02561        -0.001276      0.000099      0.001196
      0.54001      8.82175     28.12798        -0.002370      0.000467      0.001938
      0.54975      8.82457      3.87171        -0.001262     -0.000014      0.001607
     -7.88059     20.59702     20.03871        -0.000998     -0.000341      0.000806
      8.96581     20.59472     11.95300        -0.001574     -0.000181      0.001201
     -7.87556      8.82215     20.03602        -0.001260      0.000109      0.000698
      8.96594      8.82363     11.95619        -0.001055      0.000203      0.001106
     -4.75423      2.94505      7.91681         0.001662      0.000116      0.002099
     -4.75728      2.94551     15.99050         0.001279      0.000502      0.000862
     -4.72766     14.70871      7.92644         0.002281      0.000127      0.002351
    -13.17557      2.94472     16.00428         0.001631      0.000084      0.001321
      3.66462      2.94557      7.91390         0.001517      0.000002      0.001004
      3.66504      2.94413     15.97326         0.001748      0.000319      0.001082
      3.66249      2.94419     24.09356         0.001316     -0.000261      0.001650
    -13.17156     14.70913     15.99255         0.001076      0.000221      0.001117
      3.66965     14.70863      7.92989         0.002284      0.000098      0.001890
      3.64576     14.71633     24.29015         0.001449     -0.001439      0.001015
     -4.75714      2.94466     24.07707         0.001493      0.000335      0.000602
     12.08988      2.94548     15.99567         0.001371      0.000093      0.001555
     -4.76936     14.71136     24.08277         0.002238     -0.000325      0.000755
     12.09453     14.70883     16.00103         0.001426     -0.000032      0.000715
     13.17802     20.59310     16.32854        -0.000928      0.000354     -0.000870
     -3.66131     20.58958      8.25181        -0.000142      0.000957     -0.001363
     13.17909      8.82415     16.32996        -0.000853     -0.000016     -0.001195
     -3.65874      8.82616      8.24871        -0.001001      0.000056     -0.001078
      4.76071     20.59778     24.51332        -0.001219      0.000568     -0.000845
    -12.08484     20.59461     16.33382        -0.001377     -0.000169     -0.001497
      4.75314     20.59502      8.24387        -0.000837      0.000243     -0.001106
      4.75660     20.59520     16.29626        -0.003714     -0.000416     -0.000083
      4.76286      8.81778     24.52228        -0.000910     -0.000285     -0.001287
    -12.08364      8.82314     16.33595        -0.001792      0.000131     -0.001849
      4.75363      8.82247      8.24165        -0.001790     -0.000024     -0.001253
     -3.66283     20.59445     16.32761        -0.001263      0.000266     -0.000602
     -3.66541     20.59381     24.40621        -0.001524      0.000121     -0.001037
     -3.66724      8.82466     24.40255        -0.000790     -0.000220     -0.001537
     -0.54451      2.94492      4.21219         0.001312      0.000082     -0.001018
     -0.54333      2.94477     12.28101         0.001582      0.000085     -0.001285
     -0.55400     14.70848      4.21017         0.001371     -0.000068     -0.000792
     -8.95668      2.94483     12.28743         0.001308      0.000063     -0.001486
     -8.96872      2.94471     20.36867         0.001262      0.000198     -0.000752
      7.87363      2.94542     12.28601         0.001442      0.000094     -0.001412
      7.90189      2.94498     20.37957         0.001155     -0.000042     -0.000902
     -8.95318     14.70738     12.30383         0.001191      0.000699     -0.000746
     -8.96334     14.70992     20.36858         0.001246      0.000086     -0.002496
      7.87444     14.70781     12.27816         0.001413      0.000201     -0.000288
      8.09971     14.70979     20.37516         0.005519     -0.000219     -0.005039
     -0.56117      2.94326     20.38286         0.000765      0.000173     -0.000354
     -0.54691      2.94504     28.44749         0.001367      0.000130     -0.001633
     -0.56331     14.70859     28.47448         0.000620     -0.000161     -0.000576
      8.43128     17.65709     16.14705        -0.000780      0.001519     -0.000242
     -8.41745     17.65194      8.09157        -0.000195      0.000612      0.000462
      8.42186      5.88405     16.15528        -0.000259      0.000213      0.000235
     -8.41808      5.89624      8.08355         0.000138     -0.000336     -0.000806
[...]
      2.57576     11.44625     17.78429         0.001191      0.000389     -0.000110
      1.67176     12.18984     13.69912        -0.000013     -0.001100      0.001536
      1.73941     12.33227     21.79910         0.000661      0.000350     -0.000235
     -1.69154      6.30056     18.60849        -0.000540     -0.000498     -0.000045
     -1.69549      6.30976     10.53136        -0.000208     -0.000061     -0.000409
      5.90509     17.24598     14.57175        -0.000143      0.000724      0.000464
     -2.50832     17.21395     14.57696         0.000204      0.003542     -0.000969
     -5.89917      6.30975     17.74919        -0.000423     -0.001335      0.000425
      2.53238      6.30957     17.77686        -0.000105     -0.000307      0.000077
      1.66467     17.23863     13.69278         0.000235      0.000558      0.000767
      1.73460     17.12607     21.78310         0.000130     -0.000066      0.001019
      5.90627     12.17899     14.57081        -0.000459     -0.000975      0.000636
     -2.49675     12.22488     14.57514        -0.001191     -0.005379      0.001425
     -1.68151     11.39585     18.62052        -0.001106     -0.002168      0.000325
     -1.69669     11.34410     10.52888        -0.000739      0.001239      0.000341
    total drift:                               -0.005805     -0.247282     -0.871905

  FREE ENERGIE OF THE ION-ELECTRON SYSTEM (eV)
  free  energy   TOTEN  =    -11418.46924360 eV

  energy  without entropy=   -11418.46924360  energy(sigma->0) =   -11418.46924360

 d Force = 0.3054527E-03[ 0.222E-03, 0.389E-03]  d Energy = 0.3045722E-03 0.880E-06
 d Force = 0.1553094E+00[ 0.153E+00, 0.158E+00]  d Ewald  = 0.1553104E+00-0.989E-06

 stress matrix after NEB project (eV)
    -15.10277     -0.03199     -0.24307
     -0.03199    -18.40260     -0.05260
     -0.24319     -0.05259    -19.22671
  FORCES: max atom, RMS     0.009116    0.002138
  FORCE total and by dimension    0.038178    0.006660
  Stress total and by dimension   30.602966   19.226707

 reached required accuracy - stopping structural energy minimisation

 total charge

# of ion       s       p       d       tot
    1        1.786   4.719   0.019   6.523
    2        1.786   4.719   0.019   6.523
    3        1.786   4.719   0.019   6.523
    4        1.786   4.719   0.019   6.523
    5        1.786   4.719   0.019   6.523
    6        1.786   4.719   0.019   6.523
    7        1.786   4.719   0.019   6.523
    8        1.786   4.719   0.018   6.523
    9        1.786   4.719   0.019   6.523
   10        1.786   4.719   0.019   6.524
   11        1.786   4.719   0.019   6.523
   12        1.786   4.719   0.019   6.523
   13        1.786   4.719   0.019   6.523
   14        1.786   4.719   0.019   6.523
   15        1.786   4.719   0.019   6.523
   16        1.786   4.719   0.019   6.523
   17        1.786   4.719   0.019   6.523
   18        1.786   4.719   0.019   6.523
   19        1.786   4.719   0.019   6.523
   20        1.786   4.719   0.019   6.523
   21        1.786   4.719   0.019   6.523
   22        1.786   4.719   0.019   6.523
   23        1.786   4.719   0.018   6.522
   24        1.787   4.719   0.020   6.526
   25        1.786   4.719   0.019   6.523
   26        1.786   4.719   0.019   6.523
   27        1.786   4.719   0.019   6.523
   28        1.786   4.719   0.019   6.523
   29        1.786   4.719   0.019   6.524
   30        1.786   4.719   0.019   6.523
   31        1.786   4.719   0.019   6.524
   32        1.786   4.719   0.019   6.524
   33        1.786   4.719   0.019   6.524
   34        1.786   4.719   0.019   6.524
   35        1.786   4.719   0.019   6.524
   36        1.786   4.719   0.019   6.523
   37        1.786   4.719   0.019   6.524
   38        1.786   4.719   0.019   6.524
   39        1.786   4.719   0.019   6.523
   40        1.786   4.719   0.019   6.523
   41        1.786   4.719   0.019   6.523
   42        1.786   4.719   0.019   6.523
   43        1.786   4.719   0.019   6.523
   44        1.786   4.719   0.019   6.524
   45        1.786   4.719   0.018   6.523
   46        1.786   4.719   0.019   6.523
   47        1.786   4.719   0.019   6.524
   48        1.786   4.719   0.019   6.524
   49        1.786   4.719   0.019   6.523
   50        1.786   4.719   0.019   6.523
   51        1.786   4.719   0.019   6.523
   52        1.786   4.719   0.019   6.523
   53        1.786   4.718   0.019   6.523
   54        1.786   4.719   0.019   6.524
   55        1.786   4.719   0.019   6.523
   56        1.786   4.719   0.019   6.524
   57        1.554   0.417   9.833  11.804
   58        1.554   0.415   9.833  11.802
   59        1.554   0.415   9.833  11.803
   60        1.554   0.414   9.833  11.802
[...]
  305        1.614   3.281   0.006   4.900
  306        1.614   3.285   0.006   4.905
  307        1.614   3.280   0.006   4.900
  308        1.614   3.285   0.006   4.905
  309        1.614   3.284   0.006   4.904
  310        1.614   3.285   0.006   4.905
  311        1.614   3.282   0.006   4.902
  312        1.614   3.283   0.006   4.903
  313        1.614   3.283   0.006   4.903
  314        1.614   3.285   0.006   4.905
  315        1.614   3.280   0.006   4.900
  316        1.614   3.285   0.006   4.905
  317        1.614   3.282   0.006   4.902
  318        1.614   3.284   0.006   4.904
  319        1.614   3.284   0.006   4.904
tot        522.015 955.928 631.6802109.623