 vasp.5.4.4.18Apr17-6-g9f103f2a35 (build Jun 22 2020 09:27:21) complex

 INCAR:
 POTCAR:    PAW_PBE Cs_sv 08Apr2002
 POTCAR:    PAW_PBE Pb_d 06Sep2000
 POTCAR:    PAW_PBE Br 06Sep2000
 POTCAR:    PAW_PBE Cs_sv 08Apr2002
 POTCAR:    PAW_PBE Cs_sv 08Apr2002
   VRHFIN =Cs: 5s5p6s

   TITEL  = PAW_PBE Cs_sv 08Apr2002
   POMASS =  132.900; ZVAL   =    9.000    mass and valenz
   ENMAX  =  220.318; ENMIN  =  165.238 eV

   TITEL  = PAW_PBE Pb_d 06Sep2000
   POMASS =  207.200; ZVAL   =   14.000    mass and valenz
   ENMAX  =  237.835; ENMIN  =  178.376 eV

   TITEL  = PAW_PBE Br 06Sep2000
   POMASS =   79.904; ZVAL   =    7.000    mass and valenz
   ENMAX  =  216.285; ENMIN  =  162.214 eV

   TITEL  = PAW_PBE Cs_sv 08Apr2002
   POMASS =  132.900; ZVAL   =    9.000    mass and valenz
   ENMAX  =  220.318; ENMIN  =  165.238 eV

 Optimization of the real space projectors (new method)

 maximal supplied QI-value         = 15.12
 optimisation between [QCUT,QGAM] = [  8.77, 17.69] = [ 21.53, 87.61] Ry
 Optimized for a Real-space Cutoff    1.85 Angstroem

   l    n(q)    QCUT    max X(q) W(low)/X(q) W(high)/X(q)  e(spline)
   0     10     8.768    25.322    0.81E-04    0.51E-04    0.48E-06
   0     10     8.768    99.187    0.78E-04    0.50E-04    0.47E-06
   1      9     8.768    11.761    0.21E-03    0.20E-03    0.37E-06
   1      9     8.768     8.275    0.24E-03    0.22E-03    0.41E-06
   2      9     8.768     3.829    0.23E-04    0.15E-03    0.18E-06
 Optimization of the real space projectors (new method)

[...]

   l    n(q)    QCUT    max X(q) W(low)/X(q) W(high)/X(q)  e(spline)
   0      8     8.797   175.082    0.82E-04    0.14E-03    0.89E-07
   0      8     8.797   174.004    0.79E-04    0.14E-03    0.86E-07
   1      8     8.797    54.315    0.16E-03    0.14E-04    0.30E-06
   1      8     8.797    42.441    0.16E-03    0.14E-04    0.30E-06
   2      7     8.797     3.596    0.92E-04    0.15E-03    0.85E-07
 Optimization of the real space projectors (new method)

 maximal supplied QI-value         = 15.12
 optimisation between [QCUT,QGAM] = [  8.77, 17.69] = [ 21.53, 87.61] Ry
 Optimized for a Real-space Cutoff    1.85 Angstroem

   l    n(q)    QCUT    max X(q) W(low)/X(q) W(high)/X(q)  e(spline)
   0     10     8.768    25.322    0.81E-04    0.51E-04    0.48E-06
   0     10     8.768    99.187    0.78E-04    0.50E-04    0.47E-06
   1      9     8.768    11.761    0.21E-03    0.20E-03    0.37E-06
   1      9     8.768     8.275    0.24E-03    0.22E-03    0.41E-06
   2      9     8.768     3.829    0.23E-04    0.15E-03    0.18E-06
  PAW_PBE Cs_sv 08Apr2002               :
  PAW_PBE Pb_d 06Sep2000                :
  PAW_PBE Br 06Sep2000                  :
  PAW_PBE Cs_sv 08Apr2002               :

 POSCAR: Cs7 Pb8 Br24
  positions in direct lattice

 METAGGA = SCAN     LMAXTAU =  6    LMIXTAU =  F

 VTST: version 3.2, (02/03/18)

 CHAIN: initializing optimizer

 OPT: Using VASP Conjugate-Gradient optimizer
 CHAIN: Read ICHAIN            0

 POSCAR: Cs7 Pb8 Br24
  positions in direct lattice

 ion  position               nearest neighbor table
   1  0.270  0.250  0.198-
   2  0.774  0.250  0.717-
   3  0.209  0.750  0.764-
   4  0.294  0.250  0.738-
   5  0.791  0.250  0.224-
   6  0.244  0.750  0.277-
   7  0.996  0.996  0.997-  19 2.97  29 2.98  34 3.00  17 3.02  31 3.03  28 3.04
   8  0.499  0.003  0.499-  18 2.98  20 2.99  27 2.99  33 2.99  32 3.01  30 3.02
   9  0.505  0.996  0.999-  15 2.97  29 2.97  33 3.01  27 3.02  21 3.02  31 3.06
  10  0.003  0.002  0.500-  30 2.96  22 2.98  34 3.00  16 3.00  28 3.02  32 3.05
  11  0.505  0.504  0.999-  15 2.97  35 2.97  25 3.01  37 3.02  21 3.02  23 3.06
  12  0.003  0.498  0.500-  36 2.96  22 2.98  26 3.00  16 3.00  38 3.02  24 3.05
  13  0.996  0.504  0.997-  19 2.97  35 2.98  26 3.00  17 3.02  23 3.03  38 3.04
  14  0.499  0.497  0.499-  18 2.98  20 2.99  37 2.99  25 2.99  24 3.01  36 3.02
  15  0.456  0.750  0.970-   9 2.97  11 2.97
  16  0.004  0.750  0.465-  12 3.00  10 3.00
  17  0.972  0.250  0.969-  13 3.02   7 3.02
  18  0.449  0.250  0.467-   8 2.98  14 2.98
  19  0.047  0.750  0.029-   7 2.97  13 2.97
  20  0.498  0.750  0.525-  14 2.99   8 2.99
  21  0.530  0.250  0.030-   9 3.02  11 3.02
  22  0.032  0.250  0.547-  12 2.98  10 2.98
  23  0.248  0.469  0.951-  13 3.03  11 3.06
  24  0.748  0.450  0.457-  14 3.01  12 3.05
  25  0.445  0.519  0.247-  14 2.99  11 3.01
  26  0.947  0.539  0.745-  12 3.00  13 3.00
  27  0.546  0.044  0.750-   8 2.99   9 3.02
  28  0.052  0.037  0.250-  10 3.02   7 3.04
  29  0.753  0.972  0.063-   9 2.97   7 2.98
  30  0.251  0.980  0.559-  10 2.96   8 3.02
  31  0.248  0.031  0.951-   7 3.03   9 3.06
  32  0.748  0.050  0.457-   8 3.01  10 3.05
  33  0.445  0.981  0.247-   8 2.99   9 3.01
  34  0.947  0.961  0.745-  10 3.00   7 3.00
  35  0.753  0.528  0.063-  11 2.97  13 2.98
  36  0.251  0.520  0.559-  12 2.96  14 3.02
  37  0.546  0.456  0.750-  14 2.99  11 3.02
  38  0.052  0.463  0.250-  12 3.02  13 3.04
  39  0.727  0.750  0.206-

IMPORTANT INFORMATION: All symmetrisations will be switched off!
NOSYMM: (Re-)initialisation of all symmetry stuff for point group C_1.

 KPOINTS: 1x1x1

Automatic generation of k-mesh.
Space group operators:
 irot       det(A)        alpha          n_x          n_y          n_z        tau_x        tau_y        tau_z
    1     1.000000     0.000000     1.000000     0.000000     0.000000     0.000000     0.000000     0.000000

 Subroutine IBZKPT returns following result:

 Found      8 irreducible k-points:

 Following reciprocal coordinates:
            Coordinates               Weight
  0.000000  0.000000  0.000000      1.000000
  0.500000  0.000000  0.000000      1.000000
  0.000000  0.500000  0.000000      1.000000
  0.500000  0.500000  0.000000      1.000000
  0.000000  0.000000  0.500000      1.000000
  0.500000  0.000000  0.500000      1.000000
  0.000000  0.500000  0.500000      1.000000
  0.500000  0.500000  0.500000      1.000000

 Following cartesian coordinates:
            Coordinates               Weight
  0.000000  0.000000  0.000000      1.000000
  0.029691  0.000000  0.030948      1.000000
  0.000000  0.042503  0.000000      1.000000
  0.029691  0.042503  0.030948      1.000000
 -0.029691  0.000000  0.030948      1.000000
  0.000000  0.000000  0.061897      1.000000
 -0.029691  0.042503  0.030948      1.000000
  0.000000  0.042503  0.061897      1.000000

 SYSTEM =  CsPbBr3 cubic bulk
 POSCAR =  Cs7 Pb8 Br24

 Startparameter for this run:
   NWRITE =      2    write-flag & timer
   PREC   = accura    normal or accurate (medium, high low for compatibility)
   ISTART =      0    job   : 0-new  1-cont  2-samecut
   ICHARG =      2    charge: 1-file 2-atom 10-const
   ISPIN  =      1    spin polarized calculation?
   LNONCOLLINEAR =      F non collinear calculations
   LSORBIT =      F    spin-orbit coupling
   INIWAV =      1    electr: 0-lowe 1-rand  2-diag
   LASPH  =      T    aspherical Exc in radial PAW
   METAGGA=      F    non-selfconsistent MetaGGA calc.

 Electronic Relaxation 1
   ENCUT  =  300.0 eV  22.05 Ry    4.70 a.u.  16.48 16.61 16.48*2*pi/ulx,y,z
   ENINI  =  300.0     initial cutoff
   ENAUG  =  503.9 eV  augmentation charge cutoff
   NELM   =    200;   NELMIN=  2; NELMDL= -5     # of ELM steps
   EDIFF  = 0.1E-05   stopping-criterion for ELM
   LREAL  =      T    real-space projection
   NLSPLINE    = F    spline interpolate recip. space projectors
   LCOMPAT=      F    compatible to vasp.4.4
   GGA_COMPAT  = T    GGA compatible to vasp.4.4-vasp.4.6
   LMAXPAW     = -100 max onsite density
   LMAXMIX     =    2 max onsite mixed and CHGCAR
   VOSKOWN=      0    Vosko Wilk Nusair interpolation
   ROPT   =   -0.00025  -0.00025  -0.00025  -0.00025
 Ionic relaxation
   EDIFFG = -.1E-01   stopping-criterion for IOM
   NSW    =      0    number of steps for IOM
   NBLOCK =      1;   KBLOCK =      1    inner block; outer block
   IBRION =     -1    ionic relax: 0-MD 1-quasi-New 2-CG
   NFREE  =      1    steps in history (QN), initial steepest desc. (CG)
   ISIF   =      2    stress and relaxation
   IWAVPR =     10    prediction:  0-non 1-charg 2-wave 3-comb
   ISYM   =      0    0-nonsym 1-usesym 2-fastsym
   LCORR  =      T    Harris-Foulkes like correction to forces

   POTIM  = 0.5000    time-step for ionic-motion
   TEIN   =    0.0    initial temperature
   TEBEG  =    0.0;   TEEND  =   0.0 temperature during run
   SMASS  =  -3.00    Nose mass-parameter (am)
   estimated Nose-frequenzy (Omega)   =  0.10E-29 period in steps =****** mass=  -0.311E-26a.u.
   SCALEE = 1.0000    scale energy and forces
   NPACO  =    256;   APACO  = 16.0  distance and # of slots for P.C.
   PSTRESS=    0.0 pullay stress

  Mass of Ions in am
   POMASS = 132.90207.20 79.90132.90
  Ionic Valenz
   ZVAL   =   9.00 14.00  7.00  9.00
  Atomic Wigner-Seitz radii
  virtual crystal weights
   VCA    =   1.00  1.00  1.00  1.00
   NELECT =     344.0000    total number of electrons
   NUPDOWN=       0.0000    fix difference up-down

 DOS related values:
   EMIN   =  10.00;   EMAX   =-10.00  energy-range for DOS
   EFERMI =   0.00
   ISMEAR =     0;   SIGMA  =   0.01  broadening in eV -4-tet -1-fermi 0-gaus

 Electronic relaxation 2 (details)
   IALGO  =     38    algorithm
   LDIAG  =      T    sub-space diagonalisation (order eigenvalues)
   LSUBROT=      F    optimize rotation matrix (better conditioning)
   TURBO    =      0    0=normal 1=particle mesh
   IRESTART =      0    0=no restart 2=restart with 2 vectors
   NREBOOT  =      0    no. of reboots
   NMIN     =      0    reboot dimension
   EREF     =   0.00    reference energy to select bands
   IMIX   =      4    mixing-type and parameters
     AMIX     =   0.40;   BMIX     =  1.00
     AMIX_MAG =   1.60;   BMIX_MAG =  1.00
     AMIN     =   0.10
     WC   =   100.;   INIMIX=   1;  MIXPRE=   1;  MAXMIX= -45

 Intra band minimization:
   WEIMIN = 0.0000     energy-eigenvalue tresh-hold
   EBREAK =  0.12E-08  absolut break condition
   DEPER  =   0.30     relativ break condition

   TIME   =   0.40     timestep for ELM

  volume/ion in A,a.u.               =      41.03       276.90
  Fermi-wavevector in a.u.,A,eV,Ry     =   0.980685  1.853227 13.085320  0.961744
  Thomas-Fermi vector in A             =   2.111635

 Write flags
   LWAVE        =      F    write WAVECAR
   LDOWNSAMPLE  =      F    k-point downsampling of WAVECAR
   LCHARG       =      F    write CHGCAR
   LVTOT        =      F    write LOCPOT, total local potential
   LVHAR        =      T    write LOCPOT, Hartree potential only
   LELF         =      F    write electronic localiz. function (ELF)
   LORBIT       =     10    0 simple, 1 ext, 2 COOP (PROOUT), +10 PAW based schemes

 Dipole corrections
   LMONO  =      F    monopole corrections only (constant potential shift)
   LDIPOL =      F    correct potential (dipole corrections)
   IDIPOL =      0    1-x, 2-y, 3-z, 4-all directions
   EPSILON=  1.0000000 bulk dielectric constant

 Exchange correlation treatment:
   GGA     =    --    GGA type
   VOSKOWN=      0    Vosko Wilk Nusair interpolation
   LHFCALC =     F    Hartree Fock is set to
   LHFONE  =     F    Hartree Fock one center treatment
[...]
     14     -16.7405      2.00000
     15     -16.7386      2.00000
     16     -16.6632      2.00000
     17     -16.6630      2.00000
     18     -16.6568      2.00000
     19     -16.6565      2.00000
     20     -16.6508      2.00000
     21     -16.6507      2.00000
     22     -16.6474      2.00000
     23     -16.6473      2.00000
     24     -16.6427      2.00000
     25     -16.6427      2.00000
     26     -16.6365      2.00000
     27     -16.6362      2.00000
     28     -16.5689      2.00000
     29     -16.5639      2.00000
     30     -16.5571      2.00000
     31     -16.5567      2.00000
     32     -16.5379      2.00000
     33     -16.5370      2.00000
     34     -16.5245      2.00000
     35     -16.5166      2.00000
     36     -16.4547      2.00000
     37     -16.4544      2.00000
     38     -16.4481      2.00000
     39     -16.4481      2.00000
     40     -16.4473      2.00000
     41     -16.4470      2.00000
     42     -16.4276      2.00000
     43     -16.4276      2.00000
     44     -16.4209      2.00000
     45     -16.4194      2.00000
     46     -16.4121      2.00000
     47     -16.4121      2.00000
     48     -14.6557      2.00000
     49     -14.6392      2.00000
     50     -14.4844      2.00000
     51     -14.4109      2.00000
     52     -14.3429      2.00000
     53     -14.3381      2.00000
     54     -14.3135      2.00000
     55     -14.3007      2.00000
     56     -14.2538      2.00000
     57     -14.2376      2.00000
     58     -14.1442      2.00000
     59     -14.1181      2.00000
     60     -14.0906      2.00000
[...]
    194       4.6659      0.00000
    195       4.6984      0.00000
    196       4.9252      0.00000
    197       5.8709      0.00000
    198       5.9448      0.00000
    199       6.1075      0.00000
    200       6.1246      0.00000
    201       6.1877      0.00000
    202       6.2059      0.00000
    203       6.2629      0.00000
    204       6.2846      0.00000
    205       6.3046      0.00000
    206       6.3161      0.00000
    207       6.4136      0.00000
    208       6.4257      0.00000

 soft charge-density along one line, spin component           1
         0         1         2         3         4         5         6         7         8         9
 total charge-density along one line

------------------------ aborting loop because EDIFF is reached ----------------------------------------

 total charge

# of ion       s       p       d       tot
    1        1.787   4.722   0.022   6.530
    2        1.787   4.721   0.021   6.529
    3        1.786   4.721   0.019   6.526
    4        1.787   4.721   0.022   6.530
    5        1.786   4.721   0.021   6.528
    6        1.786   4.721   0.020   6.528
    7        1.555   0.419   9.833  11.807
    8        1.555   0.420   9.834  11.809
    9        1.555   0.420   9.833  11.808
   10        1.554   0.423   9.834  11.810
   11        1.555   0.420   9.833  11.808
   12        1.554   0.423   9.834  11.810
   13        1.555   0.419   9.833  11.807
   14        1.555   0.420   9.834  11.809
   15        1.615   3.285   0.007   4.907
   16        1.614   3.288   0.006   4.908
   17        1.614   3.290   0.006   4.910
   18        1.615   3.292   0.007   4.913
   19        1.615   3.293   0.007   4.915
   20        1.615   3.277   0.006   4.897
   21        1.614   3.290   0.006   4.910
   22        1.615   3.291   0.007   4.912
   23        1.613   3.287   0.005   4.906
   24        1.614   3.286   0.005   4.905
   25        1.614   3.291   0.006   4.911
   26        1.615   3.275   0.006   4.895
   27        1.614   3.286   0.006   4.906
   28        1.614   3.288   0.006   4.908
   29        1.617   3.311   0.008   4.936
   30        1.615   3.290   0.007   4.911
   31        1.613   3.287   0.005   4.906
   32        1.614   3.286   0.005   4.905
   33        1.614   3.291   0.006   4.911
   34        1.615   3.275   0.006   4.895
   35        1.617   3.311   0.008   4.936
   36        1.615   3.290   0.007   4.911
   37        1.614   3.286   0.006   4.906
   38        1.614   3.288   0.006   4.908
   39        1.794   4.724   0.038   6.556
tot         63.698 115.347  78.979 258.024

  FORCE on cell =-STRESS in cart. coord.  units (eV):
  Direction    XX          YY          ZZ          XY          YZ          ZX
  Alpha Z   835.99855   835.99855   835.99855
  Ewald   -5838.31373 -5668.79950 -5967.76913     0.00514    -0.00879   -83.53670
  Hartree  2578.14367  2622.66014  2485.79352     0.00414    -0.00443   -67.69110
  E(xc)   -1447.08004 -1446.69772 -1447.12836    -0.00001    -0.00002    -0.11262
  Local   -3128.27766 -3340.91191 -2907.26739    -0.00919     0.01332   152.12349
  n-local  1793.81519  1795.37214  1793.06218    -0.00002    -0.00026    -0.59516
  augment   824.99622   824.72913   824.28761     0.00001    -0.00007    -0.12821
  Kinetic  4384.93786  4388.08823  4387.68566    -0.00008    -0.00001    -0.28741
  Fock        0.00000     0.00000     0.00000     0.00000     0.00000     0.00000
  Total       4.22006    10.43905     4.66266    -0.00001    -0.00027    -0.22771
  in kB       4.22508    10.45148     4.66821    -0.00001    -0.00027    -0.22798

 VOLUME and BASIS-vectors are now :
  energy-cutoff  :      300.00
  volume of cell :     1600.27
      direct lattice vectors                 reciprocal lattice vectors
     8.420018000  0.000000000  8.077981000     0.059382296 -0.000000000  0.061896655
     0.000000000 11.763808000  0.000000000     0.000000000  0.085006488 -0.000000000
    -8.420018000  0.000000000  8.077981000    -0.059382296  0.000000000  0.061896655

  length of vectors
    11.668353789 11.763808000 11.668353789     0.085775596  0.085006488  0.085775596

 FORCES acting on ions
    electron-ion (+dipol)            ewald-force                    non-local-force                 convergence-correction
   0.295E+02 -.471E-04 -.114E+02   -.294E+02 0.582E-04 0.116E+02   -.100E+00 -.183E-04 -.118E+00   0.358E-03 0.422E-06 -.275E-03
   0.299E+02 0.284E-02 -.877E+01   -.297E+02 -.288E-02 0.862E+01   -.188E+00 -.544E-05 0.115E+00   -.316E-03 -.528E-06 0.216E-03
   -.245E+02 0.558E-04 -.755E+01   0.245E+02 -.161E-04 0.741E+01   0.256E-01 -.341E-04 0.609E-01   -.290E-03 -.548E-06 0.115E-03
   0.273E+02 -.352E-02 0.994E+01   -.271E+02 0.352E-02 -.100E+02   -.241E+00 0.387E-04 0.314E-01   -.157E-03 -.169E-06 0.315E-03
   0.324E+02 -.152E-02 0.656E+01   -.325E+02 0.154E-02 -.649E+01   0.406E-01 0.758E-05 -.895E-02   0.317E-03 0.294E-06 -.285E-03
   -.110E+02 0.351E-02 0.316E+01   0.108E+02 -.351E-02 -.306E+01   0.658E-01 -.268E-04 -.179E-01   0.163E-03 -.224E-06 -.163E-03
   0.714E+01 0.359E+02 0.581E+02   -.723E+01 -.355E+02 -.581E+02   0.352E+00 -.271E+00 0.147E-01   -.196E-03 -.422E-03 -.449E-03
   -.426E+02 0.752E+02 -.674E+02   0.431E+02 -.758E+02 0.678E+02   -.539E+00 0.469E+00 -.134E+00   0.442E-05 -.225E-03 0.313E-03
   -.660E+02 0.516E+02 -.246E+01   0.661E+02 -.514E+02 0.211E+01   -.120E+00 -.753E-01 0.849E-01   0.578E-03 -.447E-03 0.802E-04
   0.467E+02 0.497E+02 0.457E+02   -.471E+02 -.500E+02 -.472E+02   0.119E+00 0.215E+00 0.153E+01   -.175E-03 -.155E-03 -.164E-03
   -.660E+02 -.516E+02 -.245E+01   0.661E+02 0.514E+02 0.211E+01   -.120E+00 0.751E-01 0.850E-01   0.575E-03 0.452E-03 0.847E-04
   0.467E+02 -.497E+02 0.457E+02   -.470E+02 0.500E+02 -.472E+02   0.118E+00 -.215E+00 0.153E+01   -.173E-03 0.154E-03 -.162E-03
   0.715E+01 -.359E+02 0.581E+02   -.724E+01 0.355E+02 -.581E+02   0.353E+00 0.270E+00 0.148E-01   -.191E-03 0.421E-03 -.449E-03
   -.426E+02 -.752E+02 -.674E+02   0.431E+02 0.758E+02 0.678E+02   -.538E+00 -.469E+00 -.135E+00   0.823E-05 0.223E-03 0.315E-03
   -.402E+02 0.303E-02 0.320E+02   0.401E+02 -.308E-02 -.325E+02   0.976E-01 -.354E-04 0.581E+00   0.490E-03 -.985E-06 0.283E-03
   0.388E+02 -.392E-02 0.525E+02   -.388E+02 0.400E-02 -.526E+02   -.300E-01 0.104E-04 -.761E-01   -.197E-03 -.232E-06 -.159E-04
   -.109E+02 0.191E-02 0.410E+02   0.111E+02 -.193E-02 -.412E+02   -.192E+00 0.723E-04 0.160E+00   -.211E-04 0.140E-06 -.192E-04
   -.119E+02 -.312E-02 0.300E+02   0.119E+02 0.317E-02 -.304E+02   0.313E-01 -.274E-04 0.329E+00   0.320E-04 -.118E-05 0.101E-03
   0.964E+01 0.594E-02 -.754E+01   -.950E+01 -.604E-02 0.792E+01   -.239E+00 0.220E-04 -.341E+00   -.116E-03 -.775E-06 -.507E-03
   -.105E+02 0.549E-03 -.851E+02   0.102E+02 -.557E-03 0.853E+02   0.406E+00 -.285E-04 -.301E+00   -.521E-04 0.198E-05 0.377E-03
   -.205E+02 -.104E-02 -.353E+02   0.206E+02 0.104E-02 0.355E+02   -.649E-01 0.367E-04 -.148E+00   0.187E-03 -.564E-06 -.880E-04
   0.516E+01 0.139E-02 -.292E+02   -.515E+01 -.140E-02 0.296E+02   0.203E-01 -.295E-04 -.333E+00   -.818E-04 0.337E-06 -.234E-05
   -.238E+02 0.460E+01 0.256E+02   0.240E+02 -.475E+01 -.258E+02   -.232E+00 0.170E+00 0.199E+00   -.387E-04 0.840E-04 0.539E-04
   -.790E+01 -.239E+02 0.138E+02   0.804E+01 0.237E+02 -.139E+02   -.849E-01 0.244E+00 0.128E-01   -.789E-04 0.200E-03 0.792E-04
   0.132E+02 -.268E+02 0.321E+01   -.135E+02 0.268E+02 -.347E+01   0.342E+00 0.707E-02 0.205E+00   0.286E-03 0.154E-04 -.875E-04
   0.613E+02 -.687E+02 0.634E+02   -.617E+02 0.692E+02 -.639E+02   0.293E+00 -.464E+00 0.557E+00   -.482E-03 0.313E-03 0.395E-04
   -.427E+02 0.316E+02 -.491E+02   0.429E+02 -.314E+02 0.494E+02   -.314E+00 -.136E+00 -.189E+00   -.869E-04 -.348E-03 0.367E-03
   -.724E+01 -.687E+01 -.206E+02   0.746E+01 0.704E+01 0.208E+02   -.158E+00 -.186E+00 -.264E+00   0.813E-04 -.120E-03 -.265E-03
   -.552E+00 0.271E+02 -.191E+01   0.426E+00 -.270E+02 0.213E+01   0.488E+00 0.685E+00 -.452E+00   0.410E-03 -.315E-03 -.427E-03
   0.187E+02 0.264E+02 -.334E+02   -.189E+02 -.266E+02 0.337E+02   0.187E+00 0.157E+00 -.358E+00   -.484E-04 0.970E-06 0.954E-04
   -.238E+02 -.460E+01 0.256E+02   0.240E+02 0.475E+01 -.258E+02   -.232E+00 -.170E+00 0.199E+00   -.372E-04 -.827E-04 0.543E-04
   -.789E+01 0.239E+02 0.138E+02   0.804E+01 -.237E+02 -.139E+02   -.850E-01 -.244E+00 0.127E-01   -.793E-04 -.200E-03 0.794E-04
   0.132E+02 0.268E+02 0.321E+01   -.135E+02 -.268E+02 -.347E+01   0.342E+00 -.701E-02 0.205E+00   0.284E-03 -.155E-04 -.867E-04
   0.613E+02 0.687E+02 0.634E+02   -.617E+02 -.691E+02 -.639E+02   0.293E+00 0.464E+00 0.558E+00   -.482E-03 -.312E-03 0.384E-04
   -.556E+00 -.271E+02 -.191E+01   0.430E+00 0.270E+02 0.213E+01   0.488E+00 -.686E+00 -.452E+00   0.407E-03 0.317E-03 -.428E-03
   0.187E+02 -.264E+02 -.334E+02   -.189E+02 0.266E+02 0.337E+02   0.187E+00 -.157E+00 -.358E+00   -.505E-04 -.993E-06 0.919E-04
   -.427E+02 -.316E+02 -.491E+02   0.429E+02 0.314E+02 0.494E+02   -.314E+00 0.136E+00 -.189E+00   -.862E-04 0.347E-03 0.367E-03
   -.724E+01 0.686E+01 -.206E+02   0.745E+01 -.704E+01 0.208E+02   -.158E+00 0.186E+00 -.264E+00   0.818E-04 0.121E-03 -.265E-03
   0.446E+02 -.268E-02 -.632E+02   -.447E+02 0.271E-02 0.632E+02   -.103E+01 0.727E-04 0.713E+00   0.503E-03 -.267E-05 -.530E-03
   0.632E+00 0.122E-03 -.294E+01   0.995E-13 -.128E-12 -.782E-13   -.734E+00 -.138E-03 0.306E+01   0.133E-02 0.873E-07 -.120E-02

 POSITION                                       TOTAL-FORCE (eV/Angst)
      0.60609      2.94096      3.78059        -0.012762     -0.000014      0.022621
      0.47468      2.94096     12.04620         0.046297     -0.000058     -0.050045
     -4.67378      8.82286      7.86198         0.039746      0.000005     -0.087614
     -3.74314      2.94094      8.33459         0.052871      0.000047     -0.055648
      4.77533      2.94094      8.19387        -0.040822      0.000036      0.060404
     -0.27694      8.82287      4.21177        -0.072200     -0.000030      0.077964
     -0.00630     11.71353     16.10360         0.291257      0.098676     -0.022912
      0.00241      0.03710      8.05783        -0.013817     -0.142561      0.206616
     -4.15257     11.71688     12.15048         0.003714      0.127489     -0.292340
     -4.18482      0.02760      4.06768        -0.179233     -0.059959     -0.014468
     -4.15258      5.92887     12.15050         0.003977     -0.127489     -0.292645
     -4.18490      5.85428      4.06772        -0.178899      0.059936     -0.014668
     -0.00623      5.93212     16.10358         0.291095     -0.098717     -0.022724
      0.00246      5.84486      8.05782        -0.014089      0.142584      0.206718
     -4.33180      8.82288     11.51844        -0.020459     -0.000063      0.134599
     -3.87769      8.82282      3.79219         0.004956      0.000055     -0.154396
      0.01729      2.94093     15.67897        -0.024819      0.000036      0.010035
     -0.14892      2.94096      7.40490        -0.001335      0.000025     -0.037812
      0.15210      8.82286      0.61882        -0.110369     -0.000070      0.014888
     -0.22999      8.82288      8.25902         0.118948     -0.000016     -0.070414
      4.20627      2.94096      4.52160         0.007058      0.000042      0.018444
     -4.33622      2.94094      4.67075         0.021849     -0.000040      0.017178
     -5.92137      5.51820      9.68632        -0.020525      0.028063      0.017950
      2.44831      5.29713      9.73168         0.058460      0.030092     -0.059694
      1.66838      6.11017      5.58322         0.127297      0.047400     -0.044634
      1.69801      6.33702     13.66479        -0.068568     -0.042701      0.126110
     -1.71750      0.51320     10.46225        -0.108062      0.016743      0.048813
     -1.67140      0.43481      2.44158         0.039927     -0.022862     -0.061989
      5.81331     11.43073      6.59012         0.374312      0.749004     -0.234450
     -2.59106     11.53057      6.54295         0.016490     -0.003611     -0.006569
     -5.92135      0.36374      9.68632        -0.020608     -0.028098      0.017943
      2.44833      0.58479      9.73168         0.058370     -0.030111     -0.059741
      1.66838     11.53554      5.58321         0.127318     -0.047366     -0.044608
      1.69801     11.30867     13.66478        -0.068571      0.042734      0.126183
      5.81332      6.21500      6.59015         0.374334     -0.749118     -0.234564
     -2.59102      6.11513      6.54295         0.016418      0.003629     -0.006627
     -1.71751      5.36872     10.46225        -0.108065     -0.016720      0.048776
     -1.67142      5.44705      2.44155         0.039879      0.022908     -0.061974
      4.38916      8.82284      7.54059        -1.051371      0.000100      0.775292
    total drift:                               -0.100819     -0.000015      0.119247

  FREE ENERGIE OF THE ION-ELECTRON SYSTEM (eV)
  free  energy   TOTEN  =     -1386.69251443 eV

  energy  without entropy=    -1386.69251443  energy(sigma->0) =    -1386.69251443

 stress matrix after NEB project (eV)
      4.22006     -0.00001     -0.22771
     -0.00001     10.43905     -0.00027
     -0.22779     -0.00027      4.66266
  FORCES: max atom, RMS     1.306315    0.323084
  FORCE total and by dimension    2.017659    1.051371
  Stress total and by dimension   12.191255   10.439047

 total charge

# of ion       s       p       d       tot
    1        1.787   4.722   0.022   6.530
    2        1.787   4.721   0.021   6.529
    3        1.786   4.721   0.019   6.526
    4        1.787   4.721   0.022   6.530
    5        1.786   4.721   0.021   6.528
    6        1.786   4.721   0.020   6.528
    7        1.555   0.419   9.833  11.807
    8        1.555   0.420   9.834  11.809
    9        1.555   0.420   9.833  11.808
   10        1.554   0.423   9.834  11.810
   11        1.555   0.420   9.833  11.808
   12        1.554   0.423   9.834  11.810
   13        1.555   0.419   9.833  11.807
   14        1.555   0.420   9.834  11.809
   15        1.615   3.285   0.007   4.907
   16        1.614   3.288   0.006   4.908
   17        1.614   3.290   0.006   4.910
   18        1.615   3.292   0.007   4.913
   19        1.615   3.293   0.007   4.915
   20        1.615   3.277   0.006   4.897
   21        1.614   3.290   0.006   4.910
   22        1.615   3.291   0.007   4.912
   23        1.613   3.287   0.005   4.906
   24        1.614   3.286   0.005   4.905
   25        1.614   3.291   0.006   4.911
   26        1.615   3.275   0.006   4.895
   27        1.614   3.286   0.006   4.906
   28        1.614   3.288   0.006   4.908
   29        1.617   3.311   0.008   4.936
   30        1.615   3.290   0.007   4.911
   31        1.613   3.287   0.005   4.906
   32        1.614   3.286   0.005   4.905
   33        1.614   3.291   0.006   4.911
   34        1.615   3.275   0.006   4.895
   35        1.617   3.311   0.008   4.936
   36        1.615   3.290   0.007   4.911
   37        1.614   3.286   0.006   4.906
   38        1.614   3.288   0.006   4.908
   39        1.794   4.724   0.038   6.556
tot         63.698 115.347  78.979 258.024