 vasp.5.4.4.18Apr17-6-g9f103f2a35 (build Jun 22 2020 09:27:21) complex

 INCAR:
 POTCAR:    PAW_PBE Cs_sv 08Apr2002
 POTCAR:    PAW_PBE Pb_d 06Sep2000
 POTCAR:    PAW_PBE Br 06Sep2000
 POTCAR:    PAW_PBE Cs_sv 08Apr2002
   VRHFIN =Cs: 5s5p6s

   TITEL  = PAW_PBE Cs_sv 08Apr2002
   POMASS =  132.900; ZVAL   =    9.000    mass and valenz
   ENMAX  =  220.318; ENMIN  =  165.238 eV

   TITEL  = PAW_PBE Pb_d 06Sep2000
   POMASS =  207.200; ZVAL   =   14.000    mass and valenz
   ENMAX  =  237.835; ENMIN  =  178.376 eV

   TITEL  = PAW_PBE Br 06Sep2000
   POMASS =   79.904; ZVAL   =    7.000    mass and valenz
   ENMAX  =  216.285; ENMIN  =  162.214 eV

 Optimization of the real space projectors (new method)

 maximal supplied QI-value         = 15.12
 optimisation between [QCUT,QGAM] = [  8.77, 17.69] = [ 21.53, 87.61] Ry
 Optimized for a Real-space Cutoff    1.85 Angstroem

   l    n(q)    QCUT    max X(q) W(low)/X(q) W(high)/X(q)  e(spline)
   0     10     8.768    25.322    0.81E-04    0.51E-04    0.48E-06
   0     10     8.768    99.187    0.78E-04    0.50E-04    0.47E-06
   1      9     8.768    11.761    0.21E-03    0.20E-03    0.37E-06
   1      9     8.768     8.275    0.24E-03    0.22E-03    0.41E-06
   2      9     8.768     3.829    0.23E-04    0.15E-03    0.18E-06
 Optimization of the real space projectors (new method)

[...]

   l    n(q)    QCUT    max X(q) W(low)/X(q) W(high)/X(q)  e(spline)
   2      7     8.768     3.846    0.48E-04    0.11E-03    0.11E-06
   2      7     8.768     8.593    0.20E-03    0.22E-04    0.24E-06
   0      8     8.768    20.082    0.68E-04    0.88E-04    0.41E-07
   0      8     8.768     8.597    0.89E-04    0.13E-03    0.59E-07
   1      8     8.768    33.223    0.15E-03    0.53E-04    0.87E-07
   1      8     8.768    15.899    0.14E-03    0.44E-04    0.78E-07
 Optimization of the real space projectors (new method)

 maximal supplied QI-value         = 17.95
 optimisation between [QCUT,QGAM] = [  8.80, 17.59] = [ 21.67, 86.68] Ry
 Optimized for a Real-space Cutoff    1.59 Angstroem

   l    n(q)    QCUT    max X(q) W(low)/X(q) W(high)/X(q)  e(spline)
   0      8     8.797   175.082    0.82E-04    0.14E-03    0.89E-07
   0      8     8.797   174.004    0.79E-04    0.14E-03    0.86E-07
   1      8     8.797    54.315    0.16E-03    0.14E-04    0.30E-06
   1      8     8.797    42.441    0.16E-03    0.14E-04    0.30E-06
   2      7     8.797     3.596    0.92E-04    0.15E-03    0.85E-07
  PAW_PBE Cs_sv 08Apr2002               :
  PAW_PBE Pb_d 06Sep2000                :
  PAW_PBE Br 06Sep2000                  :

 POSCAR: Cs24 Pb6 Br36
  positions in direct lattice
  velocities in cartesian coordinates

 METAGGA = SCAN     LMAXTAU =  6    LMIXTAU =  F

 VTST: version 3.2, (02/03/18)

 CHAIN: initializing optimizer

 OPT: Using VASP Conjugate-Gradient optimizer
 CHAIN: Read ICHAIN            0

 POSCAR: Cs24 Pb6 Br36
  positions in direct lattice
  velocities in cartesian coordinates

 ion  position               nearest neighbor table
   1  0.333  0.667  0.917-
   2  0.333  0.667  0.417-
   3  0.376  0.000  0.250-
   4  1.000  0.376  0.250-
   5  0.624  0.624  0.250-
   6  0.291  0.333  0.083-
   7  0.667  0.958  0.083-
   8  0.042  0.709  0.083-
   9  0.000  0.000  0.250-
  10  0.000  0.000  0.750-
  11  0.042  0.333  0.583-
  12  0.667  0.709  0.583-
  13  0.291  0.958  0.583-
  14  0.958  0.667  0.417-
  15  0.333  0.291  0.417-
  16  0.709  0.042  0.417-
  17  0.667  0.333  0.583-
  18  0.667  0.333  0.083-
  19  0.709  0.667  0.917-
  20  0.333  0.042  0.917-
  21  0.958  0.291  0.917-
  22  0.624  0.000  0.750-
  23  0.000  0.624  0.750-
  24  0.376  0.376  0.750-
  25  0.000  0.000  0.000-  34 3.04  64 3.04  35 3.04  66 3.04  65 3.04  36 3.04
  26  0.333  0.667  0.167-  38 3.04  33 3.04  37 3.04  39 3.04  31 3.04  32 3.04
  27  0.667  0.333  0.333-  40 3.04  48 3.04  42 3.04  41 3.04  47 3.04  46 3.04
  28  0.000  0.000  0.500-  44 3.04  50 3.04  49 3.04  43 3.04  45 3.04  51 3.04
  29  0.333  0.667  0.667-  58 3.04  53 3.04  59 3.04  60 3.04  54 3.04  52 3.04
  30  0.667  0.333  0.833-  56 3.04  63 3.04  55 3.04  57 3.04  61 3.04  62 3.04
  31  0.140  0.503  0.065-  26 3.04
  32  0.497  0.638  0.065-  26 3.04
  33  0.362  0.860  0.065-  26 3.04
  34  0.971  0.164  0.101-  25 3.04
  35  0.836  0.807  0.101-  25 3.04
  36  0.193  0.029  0.101-  25 3.04
  37  0.526  0.831  0.268-  26 3.04
  38  0.169  0.695  0.268-  26 3.04
  39  0.305  0.474  0.268-  26 3.04
  40  0.695  0.169  0.232-  27 3.04
  41  0.474  0.305  0.232-  27 3.04
  42  0.831  0.526  0.232-  27 3.04
  43  0.807  0.836  0.399-  28 3.04
  44  0.164  0.971  0.399-  28 3.04
  45  0.029  0.193  0.399-  28 3.04
  46  0.638  0.497  0.435-  27 3.04
  47  0.503  0.140  0.435-  27 3.04
  48  0.860  0.362  0.435-  27 3.04
  49  0.193  0.164  0.601-  28 3.04
  50  0.836  0.029  0.601-  28 3.04
  51  0.971  0.807  0.601-  28 3.04
  52  0.362  0.503  0.565-  29 3.04
  53  0.140  0.638  0.565-  29 3.04
  54  0.497  0.860  0.565-  29 3.04
  55  0.474  0.169  0.732-  30 3.04
  56  0.831  0.305  0.732-  30 3.04
  57  0.695  0.526  0.732-  30 3.04
  58  0.305  0.831  0.768-  29 3.04
  59  0.169  0.474  0.768-  29 3.04
  60  0.526  0.695  0.768-  29 3.04
  61  0.860  0.497  0.935-  30 3.04
  62  0.503  0.362  0.935-  30 3.04
  63  0.638  0.140  0.935-  30 3.04
  64  0.029  0.836  0.899-  25 3.04
  65  0.807  0.971  0.899-  25 3.04
  66  0.164  0.193  0.899-  25 3.04

  LATTYP: Found a hexagonal cell.
 ALAT       =    13.7520072162
 C/A-ratio  =     1.2617761552

  Lattice vectors:

 A1 = (  13.7520073698,   0.0000000000,   0.0000000000)
 A2 = (  -6.8760036849,  11.9095875580,  -0.0000000000)
 A3 = (   0.0000000000,  -0.0000000000,  17.3519547922)

Analysis of symmetry for initial positions (statically):
 Subroutine PRICEL returns following result:

  LATTYP: Found a trigonal (rhomboedric) cell.
 ALAT       =     9.8231219333
 COS(alpha) =     0.0200517382

[...]

   3 primitive cells build up your supercell.

 Routine SETGRP: Setting up the symmetry group for a
 hexagonal supercell.

 Subroutine GETGRP returns: Found 12 space group operations
 (whereof  6 operations were pure point group operations)
 out of a pool of 24 trial point group operations.

The static configuration has the point symmetry S_6 .
 The point group associated with its full space group is D_3d.

Analysis of symmetry for dynamics (positions and initial velocities):
 Subroutine PRICEL returns following result:

  LATTYP: Found a trigonal (rhomboedric) cell.
 ALAT       =     9.8231219333
 COS(alpha) =     0.0200517382

  Lattice vectors:

 A1 = (  -6.8759899329,  -3.9698704590,  -5.7839964987)
 A2 = (  -0.0000068760,   7.9397290085,  -5.7839791468)
 A3 = (   6.8759968089,  -3.9698585495,  -5.7839791468)

   3 primitive cells build up your supercell.

 Routine SETGRP: Setting up the symmetry group for a
 hexagonal supercell.

 Subroutine GETGRP returns: Found 12 space group operations
 (whereof  6 operations were pure point group operations)
 out of a pool of 24 trial point group operations.

The dynamic configuration has the point symmetry S_6 .
 The point group associated with its full space group is D_3d.

 Subroutine INISYM returns: Found 12 space group operations
 (whereof  6 operations are pure point group operations),
 and found     3 'primitive' translations

 KPOINTS: 1x1x1

Automatic generation of k-mesh.
Space group operators:
 irot       det(A)        alpha          n_x          n_y          n_z        tau_x        tau_y        tau_z
    1     1.000000     0.000000     1.000000     0.000000     0.000000    -0.000000     0.000000    -0.000000
    2    -1.000000     0.000000     1.000000     0.000000     0.000000    -0.000000     0.000000    -0.000000
    3     1.000000   120.000000     0.000000     0.000000    -1.000000    -0.000000     0.000000    -0.000000
    4    -1.000000   120.000000     0.000000     0.000000    -1.000000    -0.000000     0.000000    -0.000000
    5     1.000000   120.000000     0.000000     0.000000     1.000000    -0.000000     0.000000    -0.000000
    6    -1.000000   120.000000     0.000000     0.000000     1.000000    -0.000000     0.000000    -0.000000
    7     1.000000   180.000000     1.000000     0.000000     0.000000     0.000001    -0.000000    -0.500000
    8    -1.000000   180.000000     1.000000     0.000000     0.000000     0.000001    -0.000000    -0.500000
    9     1.000000   180.000000     0.500000    -0.866025     0.000000     0.000000     0.000000    -0.500000
   10    -1.000000   180.000000     0.500000    -0.866025     0.000000     0.000000     0.000000    -0.500000
   11     1.000000   180.000000    -0.500000    -0.866025     0.000000     0.000000     0.000000    -0.500000
   12    -1.000000   180.000000    -0.500000    -0.866025     0.000000     0.000000     0.000000    -0.500000

 Subroutine IBZKPT returns following result:

 Found      7 irreducible k-points:

 Following reciprocal coordinates:
            Coordinates               Weight
  0.000000  0.000000  0.000000      1.000000
  0.333333  0.000000  0.000000      6.000000
  0.333333  0.333333  0.000000      2.000000
  0.000000  0.000000  0.333333      2.000000
  0.333333  0.000000  0.333333      6.000000
 -0.333333  0.000000  0.333333      6.000000
  0.333333  0.333333  0.333333      4.000000

 Following cartesian coordinates:
            Coordinates               Weight
  0.000000  0.000000  0.000000      1.000000
  0.024239  0.013994  0.000000      6.000000
  0.024239  0.041983  0.000000      2.000000
  0.000000  0.000000  0.019210      2.000000
  0.024239  0.013994  0.019210      6.000000
 -0.024239 -0.013994  0.019210      6.000000
  0.024239  0.041983  0.019210      4.000000

 SYSTEM =  CsPbBr3 cubic bulk
 POSCAR =  Cs24 Pb6 Br36

 Startparameter for this run:
   NWRITE =      2    write-flag & timer
   PREC   = accura    normal or accurate (medium, high low for compatibility)
   ISTART =      0    job   : 0-new  1-cont  2-samecut
   ICHARG =      2    charge: 1-file 2-atom 10-const
   ISPIN  =      1    spin polarized calculation?
   LNONCOLLINEAR =      F non collinear calculations
   LSORBIT =      F    spin-orbit coupling
   INIWAV =      1    electr: 0-lowe 1-rand  2-diag
   LASPH  =      T    aspherical Exc in radial PAW
   METAGGA=      F    non-selfconsistent MetaGGA calc.

 Electronic Relaxation 1
   ENCUT  =  300.0 eV  22.05 Ry    4.70 a.u.  19.42 19.42 24.51*2*pi/ulx,y,z
   ENINI  =  300.0     initial cutoff
   ENAUG  =  503.9 eV  augmentation charge cutoff
   NELM   =    200;   NELMIN=  2; NELMDL= -5     # of ELM steps
   EDIFF  = 0.1E-05   stopping-criterion for ELM
   LREAL  =      T    real-space projection
   NLSPLINE    = F    spline interpolate recip. space projectors
   LCOMPAT=      F    compatible to vasp.4.4
   GGA_COMPAT  = T    GGA compatible to vasp.4.4-vasp.4.6
   LMAXPAW     = -100 max onsite density
   LMAXMIX     =    2 max onsite mixed and CHGCAR
   VOSKOWN=      0    Vosko Wilk Nusair interpolation
   ROPT   =   -0.00025  -0.00025  -0.00025
 Ionic relaxation
   EDIFFG = -.1E-01   stopping-criterion for IOM
   NSW    =      0    number of steps for IOM
[...]
   0.134E-02 -.490E-03 0.549E-07   -.962E-06 0.611E-09 0.178E-11   0.000E+00 -.508E-20 0.218E-20   0.209E-06 -.124E-06 0.101E-10
   0.320E+02 0.123E-02 -.638E-03   -.320E+02 0.737E-03 0.131E-02   -.520E-01 -.231E-19 -.857E-20   0.101E-04 -.746E-06 -.193E-04
   -.160E+02 0.278E+02 -.757E-03   0.160E+02 -.277E+02 0.153E-02   0.260E-01 -.451E-01 -.221E-19   -.369E-05 0.933E-05 -.199E-04
   -.160E+02 -.278E+02 -.577E-03   0.160E+02 0.277E+02 0.433E-03   0.260E-01 0.451E-01 -.435E-20   -.532E-05 -.920E-05 -.177E-04
   -.320E+02 -.226E-02 0.102E-02   0.320E+02 -.737E-03 -.131E-02   0.520E-01 0.244E-19 -.113E-19   -.104E-04 0.638E-06 0.190E-04
   0.160E+02 -.278E+02 0.911E-03   -.160E+02 0.277E+02 -.153E-02   -.260E-01 0.451E-01 0.540E-20   0.363E-05 -.902E-05 0.195E-04
   0.160E+02 0.278E+02 0.389E-04   -.160E+02 -.277E+02 -.433E-03   -.260E-01 -.451E-01 -.134E-19   0.550E-05 0.909E-05 0.185E-04
   -.281E-02 0.192E-02 -.898E-03   -.335E-03 0.194E-03 0.127E-02   -.593E-20 0.000E+00 -.140E-19   0.621E-06 -.356E-06 -.173E-04
   -.283E-02 0.190E-02 -.898E-03   -.337E-03 0.194E-03 0.127E-02   0.000E+00 0.826E-20 0.971E-20   0.620E-06 -.358E-06 -.173E-04
   0.321E+02 -.212E-02 0.103E-02   -.320E+02 -.942E-03 -.153E-02   -.520E-01 -.339E-20 -.106E-19   0.963E-05 0.136E-05 0.195E-04
   -.160E+02 0.277E+02 0.906E-03   0.160E+02 -.277E+02 -.131E-02   0.260E-01 -.451E-01 -.158E-20   -.573E-05 0.865E-05 0.190E-04
   -.160E+02 -.278E+02 0.401E-04   0.160E+02 0.277E+02 -.435E-03   0.260E-01 0.451E-01 -.838E-20   -.512E-05 -.931E-05 0.185E-04
   -.320E+02 -.396E-03 0.197E-03   0.320E+02 -.205E-03 -.216E-03   0.520E-01 -.678E-20 -.177E-19   -.114E-04 0.670E-06 0.377E-06
   0.160E+02 -.278E+02 0.724E-04   -.160E+02 0.277E+02 0.215E-03   -.260E-01 0.451E-01 -.227E-20   0.621E-05 -.919E-05 -.764E-06
   0.160E+02 0.278E+02 -.270E-03   -.160E+02 -.277E+02 0.761E-06   -.260E-01 -.451E-01 -.172E-19   0.507E-05 0.857E-05 0.386E-06
   0.148E-02 -.227E-02 -.100E-02   0.568E-13 -.284E-13 -.284E-13   0.339E-20 0.678E-20 -.373E-20   -.389E-06 0.222E-06 0.735E-09
   0.411E-02 -.312E-02 -.877E-02   0.162E-02 -.933E-03 -.128E-03   -.678E-20 -.339E-20 0.315E-20   -.298E-05 0.172E-05 -.298E-04
   -.437E-02 0.116E-02 0.877E-02   -.162E-02 0.933E-03 0.128E-03   0.508E-20 0.678E-20 -.348E-20   0.219E-05 -.127E-05 0.298E-04
   -.178E-02 0.242E-03 0.100E-02   0.142E-13 -.284E-13 0.284E-13   0.000E+00 0.339E-20 0.111E-20   -.400E-06 0.227E-06 -.778E-09
   0.734E-02 -.569E-02 -.108E-01   0.162E-02 -.933E-03 -.128E-03   0.678E-20 -.339E-20 -.847E-20   -.297E-05 0.171E-05 -.298E-04
   -.767E-02 0.360E-02 0.108E-01   -.162E-02 0.933E-03 0.128E-03   -.169E-20 0.889E-20 0.402E-20   0.218E-05 -.126E-05 0.298E-04
   0.646E+02 0.697E+02 0.691E+02   -.648E+02 -.701E+02 -.694E+02   0.259E+00 0.351E+00 0.194E+00   -.225E-06 -.102E-04 0.296E-04
   -.927E+02 0.210E+02 0.691E+02   0.932E+02 -.211E+02 -.694E+02   -.434E+00 0.487E-01 0.194E+00   0.908E-05 0.632E-05 0.286E-04
   0.281E+02 -.908E+02 0.691E+02   -.283E+02 0.912E+02 -.694E+02   0.175E+00 -.400E+00 0.194E+00   -.101E-04 0.466E-05 0.305E-04
   0.646E+02 -.697E+02 -.691E+02   -.649E+02 0.701E+02 0.694E+02   0.259E+00 -.351E+00 -.194E+00   0.609E-06 0.998E-05 -.613E-04
   0.281E+02 0.908E+02 -.691E+02   -.283E+02 -.912E+02 0.694E+02   0.175E+00 0.400E+00 -.194E+00   -.897E-05 -.413E-05 -.613E-04
   -.927E+02 -.210E+02 -.691E+02   0.932E+02 0.211E+02 0.694E+02   -.434E+00 -.487E-01 -.194E+00   0.874E-05 -.608E-05 -.607E-04
   -.646E+02 -.697E+02 -.691E+02   0.649E+02 0.701E+02 0.694E+02   -.259E+00 -.351E+00 -.194E+00   -.198E-05 0.108E-04 -.378E-04
   0.927E+02 -.210E+02 -.691E+02   -.932E+02 0.211E+02 0.694E+02   0.434E+00 -.487E-01 -.194E+00   -.817E-05 -.579E-05 -.391E-04
   -.281E+02 0.908E+02 -.691E+02   0.283E+02 -.912E+02 0.694E+02   -.175E+00 0.400E+00 -.194E+00   0.841E-05 -.403E-05 -.373E-04
   -.646E+02 0.697E+02 0.691E+02   0.649E+02 -.701E+02 -.694E+02   -.259E+00 0.351E+00 0.194E+00   -.118E-05 -.994E-05 0.386E-04
   0.927E+02 0.210E+02 0.691E+02   -.932E+02 -.211E+02 -.694E+02   0.434E+00 0.487E-01 0.194E+00   -.764E-05 0.512E-05 0.378E-04
   -.281E+02 -.908E+02 0.691E+02   0.283E+02 0.912E+02 -.694E+02   -.175E+00 -.400E+00 0.194E+00   0.104E-04 0.390E-05 0.379E-04
   0.646E+02 0.697E+02 0.691E+02   -.649E+02 -.701E+02 -.694E+02   0.259E+00 0.351E+00 0.194E+00   0.765E-06 -.998E-05 0.613E-04
   -.927E+02 0.210E+02 0.691E+02   0.932E+02 -.211E+02 -.694E+02   -.434E+00 0.487E-01 0.194E+00   0.819E-05 0.572E-05 0.608E-04
   0.281E+02 -.908E+02 0.691E+02   -.283E+02 0.912E+02 -.694E+02   0.175E+00 -.400E+00 0.194E+00   -.948E-05 0.456E-05 0.612E-04
   0.646E+02 -.697E+02 -.691E+02   -.648E+02 0.701E+02 0.694E+02   0.259E+00 -.351E+00 -.194E+00   0.678E-06 0.111E-04 -.291E-04
   0.281E+02 0.908E+02 -.691E+02   -.283E+02 -.912E+02 0.694E+02   0.175E+00 0.400E+00 -.194E+00   -.870E-05 -.511E-05 -.296E-04
   -.927E+02 -.210E+02 -.691E+02   0.932E+02 0.211E+02 0.694E+02   -.434E+00 -.487E-01 -.194E+00   0.916E-05 -.661E-05 -.301E-04
   -.646E+02 -.697E+02 -.691E+02   0.649E+02 0.701E+02 0.694E+02   -.259E+00 -.351E+00 -.194E+00   -.909E-06 0.983E-05 -.613E-04
   0.927E+02 -.210E+02 -.691E+02   -.932E+02 0.211E+02 0.694E+02   0.434E+00 -.487E-01 -.194E+00   -.834E-05 -.552E-05 -.613E-04
   -.281E+02 0.908E+02 -.691E+02   0.283E+02 -.912E+02 0.694E+02   -.175E+00 0.400E+00 -.194E+00   0.964E-05 -.453E-05 -.607E-04
   -.646E+02 0.697E+02 0.691E+02   0.648E+02 -.701E+02 -.694E+02   -.259E+00 0.351E+00 0.194E+00   -.938E-06 -.110E-04 0.286E-04
   0.927E+02 0.210E+02 0.691E+02   -.932E+02 -.211E+02 -.694E+02   0.434E+00 0.487E-01 0.194E+00   -.911E-05 0.646E-05 0.305E-04
   -.281E+02 -.908E+02 0.691E+02   0.283E+02 0.912E+02 -.694E+02   -.175E+00 -.400E+00 0.194E+00   0.875E-05 0.532E-05 0.296E-04
   0.646E+02 0.697E+02 0.691E+02   -.649E+02 -.701E+02 -.694E+02   0.259E+00 0.351E+00 0.194E+00   0.184E-05 -.110E-04 0.379E-04
   -.927E+02 0.210E+02 0.691E+02   0.932E+02 -.211E+02 -.694E+02   -.434E+00 0.487E-01 0.194E+00   0.802E-05 0.599E-05 0.386E-04
   0.281E+02 -.908E+02 0.691E+02   -.283E+02 0.912E+02 -.694E+02   0.175E+00 -.400E+00 0.194E+00   -.825E-05 0.406E-05 0.378E-04
   0.646E+02 -.697E+02 -.691E+02   -.649E+02 0.701E+02 0.694E+02   0.259E+00 -.351E+00 -.194E+00   0.920E-06 0.997E-05 -.391E-04
   0.281E+02 0.908E+02 -.691E+02   -.283E+02 -.912E+02 0.694E+02   0.175E+00 0.400E+00 -.194E+00   -.104E-04 -.369E-05 -.378E-04
   -.927E+02 -.210E+02 -.691E+02   0.932E+02 0.211E+02 0.694E+02   -.434E+00 -.487E-01 -.194E+00   0.769E-05 -.527E-05 -.373E-04
   -.646E+02 -.697E+02 -.691E+02   0.648E+02 0.701E+02 0.694E+02   -.259E+00 -.351E+00 -.194E+00   0.808E-07 0.101E-04 -.296E-04
   0.927E+02 -.210E+02 -.691E+02   -.932E+02 0.211E+02 0.694E+02   0.434E+00 -.487E-01 -.194E+00   -.923E-05 -.612E-05 -.291E-04
   -.281E+02 0.908E+02 -.691E+02   0.283E+02 -.912E+02 0.694E+02   -.175E+00 0.400E+00 -.194E+00   0.103E-04 -.463E-05 -.301E-04
   -.646E+02 0.697E+02 0.691E+02   0.649E+02 -.701E+02 -.694E+02   -.259E+00 0.351E+00 0.194E+00   -.869E-06 -.995E-05 0.608E-04
   0.927E+02 0.210E+02 0.691E+02   -.932E+02 -.211E+02 -.694E+02   0.434E+00 0.487E-01 0.194E+00   -.869E-05 0.593E-05 0.612E-04
   -.281E+02 -.908E+02 0.691E+02   0.283E+02 0.912E+02 -.694E+02   -.175E+00 -.400E+00 0.194E+00   0.902E-05 0.433E-05 0.613E-04
   0.895E-01 -.632E-01 -.123E-06   -.128E-12 -.199E-12 0.341E-12   -.278E-15 0.111E-15 -.278E-16   -.250E-05 0.144E-05 -.106E-09

 POSITION                                       TOTAL-FORCE (eV/Angst)
     -0.00001      7.93973     15.90596         0.000000     -0.000000     -0.000000
     -0.00001      7.93973      7.22999        -0.000000      0.000000     -0.000000
      5.16778      0.00000      4.33799         0.002817     -0.000000     -0.000000
     11.16812      4.47543      4.33799        -0.001408      0.002439     -0.000000
      4.29211      7.43416      4.33799        -0.001408     -0.002439     -0.000000
      1.70823      3.96986      1.44599        -0.002817      0.000000     -0.000000
      2.58390     11.40402      1.44599         0.001408     -0.002439     -0.000000
     -4.29211      8.44529      1.44599         0.001408      0.002439     -0.000000
      0.00000      0.00000      4.33799         0.000000      0.000000     -0.000000
      0.00000      0.00000     13.01397         0.000000     -0.000000     -0.000000
     -1.70822      3.96986     10.12197         0.002817      0.000000     -0.000000
      4.29212      8.44529     10.12197        -0.001408      0.002439     -0.000000
     -2.58388     11.40402     10.12197        -0.001408     -0.002439     -0.000000
      8.58422      7.93973      7.22999        -0.002817      0.000000     -0.000000
      2.58388      3.46430      7.22999         0.001408     -0.002439     -0.000000
      9.45989      0.50557      7.22999         0.001408      0.002439     -0.000000
      6.87601      3.96986     10.12197        -0.000000      0.000000     -0.000000
      6.87601      3.96986      1.44599        -0.000000      0.000000     -0.000000
      5.16777      7.93973     15.90596         0.002817      0.000000     -0.000000
      4.29211      0.50557     15.90596        -0.001408      0.002439     -0.000000
     11.16811      3.46430     15.90596        -0.001408     -0.002439     -0.000000
      8.58423      0.00000     13.01397        -0.002817      0.000000     -0.000000
     -4.29211      7.43416     13.01397         0.001408     -0.002439     -0.000000
      2.58389      4.47543     13.01397         0.001408      0.002439     -0.000000
      0.00000      0.00000      0.00000        -0.000000      0.000000     -0.000000
     -0.00001      7.93973      2.89200         0.000000      0.000000     -0.000000
      6.87601      3.96986      5.78398        -0.000000      0.000000     -0.000000
      0.00000      0.00000      8.67598         0.000000     -0.000000     -0.000000
     -0.00001      7.93973     11.56798         0.000000     -0.000000     -0.000000
      6.87601      3.96986     14.45996         0.000000      0.000000     -0.000000
     -1.52381      5.98520      1.13388         0.001290     -0.001858     -0.004439
      2.45458      7.59732      1.13388         0.000964      0.002046     -0.004439
     -0.93075     10.23664      1.13388        -0.002254     -0.000188     -0.004439
     12.22820      1.95451      1.75810         0.001290      0.001858      0.004439
      5.94526      9.61266      1.75810        -0.002254      0.000188      0.004439
      2.45458      0.34240      1.75810         0.000964     -0.002046      0.004439
      1.52381      9.89424      4.65010        -0.001290      0.001858      0.004439
     -2.45457      8.28213      4.65010        -0.000964     -0.002046      0.004439
      0.93076      5.64281      4.65010         0.002254      0.000188      0.004439
      8.39982      2.01534      4.02588        -0.001290     -0.001858     -0.004439
      4.42144      3.62746      4.02588        -0.000964      0.002046     -0.004439
      7.80676      6.26678      4.02588         0.002254     -0.000188     -0.004439
      5.35218      9.95507      6.91788         0.001290     -0.001858     -0.004439
     -4.42144     11.56719      6.91788         0.000964      0.002046     -0.004439
     -0.93076      2.29692      6.91788        -0.002254     -0.000188     -0.004439
      5.35218      5.92438      7.54209         0.001290      0.001858      0.004439
      5.94524      1.67295      7.54209        -0.002254      0.000188      0.004439
      9.33057      4.31227      7.54209         0.000964     -0.002046      0.004439
      1.52382      1.95451     10.43408        -0.001290      0.001858      0.004439
     11.29745      0.34240     10.43408        -0.000964     -0.002046      0.004439
      7.80677      9.61266     10.43408         0.002254      0.000188      0.004439
      1.52382      5.98520      9.80986        -0.001290     -0.001858     -0.004439
     -2.45456      7.59732      9.80986        -0.000964      0.002046     -0.004439
      0.93076     10.23664      9.80986         0.002254     -0.000188     -0.004439
      5.35219      2.01534     12.70186         0.001290     -0.001858     -0.004439
      9.33057      3.62746     12.70186         0.000964      0.002046     -0.004439
      5.94525      6.26678     12.70186        -0.002254     -0.000188     -0.004439
     -1.52381      9.89424     13.32607         0.001290      0.001858      0.004439
     -0.93076      5.64281     13.32607        -0.002254      0.000188      0.004439
      2.45457      8.28213     13.32607         0.000964     -0.002046      0.004439
      8.39981      5.92438     16.21807        -0.001290      0.001858      0.004439
      4.42143      4.31227     16.21807        -0.000964     -0.002046      0.004439
      7.80675      1.67295     16.21807         0.002254      0.000188      0.004439
     -5.35220      9.95507     15.59386        -0.001290     -0.001858     -0.004439
      4.42143     11.56719     15.59386        -0.000964      0.002046     -0.004439
      0.93075      2.29692     15.59386         0.002254     -0.000188     -0.004439
    total drift:                                0.089520     -0.063239     -0.000000

  FREE ENERGIE OF THE ION-ELECTRON SYSTEM (eV)
  free  energy   TOTEN  =     -2174.79105242 eV

  energy  without entropy=    -2174.79105242  energy(sigma->0) =    -2174.79105242

 stress matrix after NEB project (eV)
     -1.80756     -0.00000     -0.00000
     -0.00000     -1.80756     -0.00000
      0.00000     -0.00000     -1.48697
  FORCES: max atom, RMS     0.004982    0.003963
  FORCE total and by dimension    0.032193    0.004439
  Stress total and by dimension    2.957295    1.807558

 total charge

# of ion       s       p       d       tot
    1        1.791   4.721   0.029   6.540
    2        1.791   4.721   0.029   6.540
    3        1.788   4.719   0.022   6.529
    4        1.788   4.718   0.022   6.528
    5        1.788   4.719   0.022   6.529
    6        1.787   4.718   0.022   6.528
    7        1.787   4.718   0.022   6.527
    8        1.787   4.718   0.022   6.528
    9        1.792   4.721   0.029   6.541
   10        1.792   4.721   0.029   6.541
   11        1.787   4.718   0.022   6.528
   12        1.787   4.718   0.022   6.527
   13        1.787   4.718   0.022   6.528
   14        1.787   4.718   0.022   6.528
   15        1.787   4.718   0.022   6.527
   16        1.787   4.718   0.022   6.528
   17        1.791   4.721   0.029   6.540
   18        1.791   4.721   0.029   6.540
   19        1.787   4.718   0.022   6.528
   20        1.787   4.718   0.022   6.527
   21        1.787   4.718   0.022   6.528
   22        1.788   4.719   0.022   6.529
   23        1.788   4.718   0.022   6.528
   24        1.788   4.719   0.022   6.529
   25        1.559   0.425   9.831  11.814
   26        1.559   0.425   9.831  11.814
   27        1.559   0.425   9.831  11.814
   28        1.559   0.425   9.831  11.814
   29        1.559   0.425   9.831  11.814
   30        1.559   0.425   9.831  11.814
   31        1.610   3.298   0.004   4.912
   32        1.610   3.298   0.004   4.912
   33        1.610   3.298   0.004   4.911
   34        1.610   3.298   0.004   4.911
   35        1.610   3.298   0.004   4.911
   36        1.610   3.298   0.004   4.912
   37        1.610   3.298   0.004   4.912
   38        1.610   3.298   0.004   4.912
   39        1.610   3.298   0.004   4.912
   40        1.610   3.298   0.004   4.912
   41        1.610   3.298   0.004   4.912
   42        1.610   3.298   0.004   4.912
   43        1.610   3.298   0.004   4.912
   44        1.610   3.298   0.004   4.911
   45        1.610   3.298   0.004   4.911
   46        1.610   3.298   0.004   4.911
   47        1.610   3.298   0.004   4.912
   48        1.610   3.298   0.004   4.912
   49        1.610   3.298   0.004   4.912
   50        1.610   3.298   0.004   4.911
   51        1.610   3.298   0.004   4.911
   52        1.610   3.298   0.004   4.911
   53        1.610   3.298   0.004   4.912
   54        1.610   3.298   0.004   4.912
   55        1.610   3.298   0.004   4.912
   56        1.610   3.298   0.004   4.912
   57        1.610   3.298   0.004   4.912
   58        1.610   3.298   0.004   4.912
   59        1.610   3.298   0.004   4.912
   60        1.610   3.298   0.004   4.912
   61        1.610   3.298   0.004   4.912
   62        1.610   3.298   0.004   4.912
   63        1.610   3.298   0.004   4.911
   64        1.610   3.298   0.004   4.911
   65        1.610   3.298   0.004   4.912
   66        1.610   3.298   0.004   4.911
tot        110.234 234.527  59.688 404.449