 vasp.5.4.4.18Apr17-6-g9f103f2a35 (build Jun 22 2020 09:27:21) complex

 INCAR:
 POTCAR:    PAW_PBE Cs_sv 08Apr2002
 POTCAR:    PAW_PBE Pb_d 06Sep2000
 POTCAR:    PAW_PBE Br 06Sep2000
 POTCAR:    PAW_PBE Cs_sv 08Apr2002
   VRHFIN =Cs: 5s5p6s

   TITEL  = PAW_PBE Cs_sv 08Apr2002
   POMASS =  132.900; ZVAL   =    9.000    mass and valenz
   ENMAX  =  220.318; ENMIN  =  165.238 eV

 POTCAR:    PAW_PBE Pb_d 06Sep2000
   VRHFIN =Pb:

   TITEL  = PAW_PBE Pb_d 06Sep2000
   POMASS =  207.200; ZVAL   =   14.000    mass and valenz
   ENMAX  =  237.835; ENMIN  =  178.376 eV

 POTCAR:    PAW_PBE Br 06Sep2000
   VRHFIN =Br: s2p5

   TITEL  = PAW_PBE Br 06Sep2000
   POMASS =   79.904; ZVAL   =    7.000    mass and valenz
   ENMAX  =  216.285; ENMIN  =  162.214 eV

 Optimization of the real space projectors (new method)

 maximal supplied QI-value         = 15.12
 optimisation between [QCUT,QGAM] = [  8.77, 17.69] = [ 21.53, 87.61] Ry
 Optimized for a Real-space Cutoff    1.85 Angstroem

   l    n(q)    QCUT    max X(q) W(low)/X(q) W(high)/X(q)  e(spline)
   0     10     8.768    25.322    0.81E-04    0.51E-04    0.48E-06
   0     10     8.768    99.187    0.78E-04    0.50E-04    0.47E-06
   1      9     8.768    11.761    0.21E-03    0.20E-03    0.37E-06
   1      9     8.768     8.275    0.24E-03    0.22E-03    0.41E-06
   2      9     8.768     3.829    0.23E-04    0.15E-03    0.18E-06
 Optimization of the real space projectors (new method)

[...]

   l    n(q)    QCUT    max X(q) W(low)/X(q) W(high)/X(q)  e(spline)
   2      7     8.768     3.846    0.48E-04    0.11E-03    0.11E-06
   2      7     8.768     8.593    0.20E-03    0.22E-04    0.24E-06
   0      8     8.768    20.082    0.68E-04    0.88E-04    0.41E-07
   0      8     8.768     8.597    0.89E-04    0.13E-03    0.59E-07
   1      8     8.768    33.223    0.15E-03    0.53E-04    0.87E-07
   1      8     8.768    15.899    0.14E-03    0.44E-04    0.78E-07
 Optimization of the real space projectors (new method)

 maximal supplied QI-value         = 17.95
 optimisation between [QCUT,QGAM] = [  8.80, 17.59] = [ 21.67, 86.68] Ry
 Optimized for a Real-space Cutoff    1.59 Angstroem

   l    n(q)    QCUT    max X(q) W(low)/X(q) W(high)/X(q)  e(spline)
   0      8     8.797   175.082    0.82E-04    0.14E-03    0.89E-07
   0      8     8.797   174.004    0.79E-04    0.14E-03    0.86E-07
   1      8     8.797    54.315    0.16E-03    0.14E-04    0.30E-06
   1      8     8.797    42.441    0.16E-03    0.14E-04    0.30E-06
   2      7     8.797     3.596    0.92E-04    0.15E-03    0.85E-07
  PAW_PBE Cs_sv 08Apr2002               :
  PAW_PBE Pb_d 06Sep2000                :
  PAW_PBE Br 06Sep2000                  :

 POSCAR: Cs2 Pb2 Br6
  positions in direct lattice
  velocities in cartesian coordinates

 METAGGA = SCAN     LMAXTAU =  6    LMIXTAU =  F

 VTST: version 3.2, (02/03/18)

 CHAIN: initializing optimizer

 OPT: Using VASP Conjugate-Gradient optimizer
 CHAIN: Read ICHAIN            0

 POSCAR: Cs2 Pb2 Br6
  positions in direct lattice
  velocities in cartesian coordinates

 ion  position               nearest neighbor table
   1  0.500  0.500  0.000-
   2  0.500  0.000  0.500-
   3  0.000  0.000  0.000-   5 2.98   6 2.98   9 2.98  10 2.98   7 3.01   7 3.01
   4  0.000  0.500  0.500-   5 2.98   6 2.98   9 2.98  10 2.98   8 3.01   8 3.01
   5  0.000  0.814  0.314-   3 2.98   4 2.98
   6  0.000  0.186  0.686-   3 2.98   4 2.98
   7  0.500  0.000  0.000-   3 3.01   3 3.01
   8  0.500  0.500  0.500-   4 3.01   4 3.01
   9  0.000  0.686  0.814-   3 2.98   4 2.98
  10  0.000  0.314  0.186-   3 2.98   4 2.98

  LATTYP: Found a simple tetragonal cell.
 ALAT       =     8.1656267688
 C/A-ratio  =     0.7368866392

  Lattice vectors:

 A1 = (  -5.7739700608,  -5.7739700608,   0.0000000000)
 A2 = (   5.7739700608,  -5.7739700608,   0.0000000000)
 A3 = (   0.0000000000,   0.0000000000,   6.0171412666)

Analysis of symmetry for initial positions (statically):
 Subroutine PRICEL returns:
 Original cell was already a primitive cell.

 Routine SETGRP: Setting up the symmetry group for a
 simple tetragonal supercell.

 Subroutine GETGRP returns: Found 16 space group operations
 (whereof  8 operations were pure point group operations)
 out of a pool of 16 trial point group operations.

The static configuration has the point symmetry C_4h.
 The point group associated with its full space group is D_4h.

Analysis of symmetry for dynamics (positions and initial velocities):
 Subroutine PRICEL returns:
 Original cell was already a primitive cell.

 Routine SETGRP: Setting up the symmetry group for a
 simple tetragonal supercell.

 Subroutine GETGRP returns: Found 16 space group operations
 (whereof  8 operations were pure point group operations)
 out of a pool of 16 trial point group operations.

The dynamic configuration has the point symmetry C_4h.
 The point group associated with its full space group is D_4h.

 Subroutine INISYM returns: Found 16 space group operations
 (whereof  8 operations are pure point group operations),
 and found     1 'primitive' translations

 KPOINTS: 1x1x1

Automatic generation of k-mesh.
Space group operators:
 irot       det(A)        alpha          n_x          n_y          n_z        tau_x        tau_y        tau_z
    1     1.000000     0.000000     1.000000     0.000000     0.000000     0.000000     0.000000     0.000000
    2    -1.000000     0.000000     1.000000     0.000000     0.000000     0.000000     0.000000     0.000000
    3     1.000000    90.000000     0.000000     0.000000    -1.000000     0.000000     0.000000     0.000000
    4    -1.000000    90.000000     0.000000     0.000000    -1.000000     0.000000     0.000000     0.000000
    5     1.000000   180.000000     0.000000     0.000000     1.000000     0.000000     0.000000     0.000000
    6    -1.000000   180.000000     0.000000     0.000000     1.000000     0.000000     0.000000     0.000000
    7     1.000000    90.000000     0.000000     0.000000     1.000000     0.000000     0.000000     0.000000
    8    -1.000000    90.000000     0.000000     0.000000     1.000000     0.000000     0.000000     0.000000
    9     1.000000   180.000000     0.707107    -0.707107     0.000000     0.000000     0.500000    -0.500000
   10    -1.000000   180.000000     0.707107    -0.707107     0.000000     0.000000     0.500000    -0.500000
   11     1.000000   180.000000    -0.000000     1.000000     0.000000     0.000000     0.500000    -0.500000
   12    -1.000000   180.000000    -0.000000     1.000000     0.000000     0.000000     0.500000    -0.500000
   13     1.000000   180.000000     0.707107     0.707107     0.000000     0.000000     0.500000    -0.500000
   14    -1.000000   180.000000     0.707107     0.707107     0.000000     0.000000     0.500000    -0.500000
   15     1.000000   180.000000     1.000000     0.000000     0.000000     0.000000     0.500000    -0.500000
   16    -1.000000   180.000000     1.000000     0.000000     0.000000     0.000000     0.500000    -0.500000

 Subroutine IBZKPT returns following result:

 Found      9 irreducible k-points:

 Following reciprocal coordinates:
            Coordinates               Weight
  0.000000  0.000000  0.000000      1.000000
  0.250000  0.000000  0.000000      2.000000
  0.500000  0.000000  0.000000      1.000000
  0.000000  0.333333  0.000000      4.000000
  0.250000  0.333333  0.000000      8.000000
  0.500000  0.333333  0.000000      4.000000
  0.000000  0.333333  0.333333      4.000000
  0.250000  0.333333  0.333333      8.000000
  0.500000  0.333333  0.333333      4.000000

 Following cartesian coordinates:
            Coordinates               Weight
 -0.000000  0.000000 -0.000000      1.000000
 -0.000000  0.000000 -0.041548      2.000000
 -0.000000  0.000000 -0.083096      1.000000
 -0.028865 -0.028865 -0.000000      4.000000
 -0.028865 -0.028865 -0.041548      8.000000
 -0.028865 -0.028865 -0.083096      4.000000
 -0.057730 -0.000000 -0.000000      4.000000
 -0.057730 -0.000000 -0.041548      8.000000
 -0.057730 -0.000000 -0.083096      4.000000

 SYSTEM =  CsPbBr3 cubic bulk
 POSCAR =  Cs2 Pb2 Br6

 Startparameter for this run:
   NWRITE =      2    write-flag & timer
   PREC   = accura    normal or accurate (medium, high low for compatibility)
   ISTART =      0    job   : 0-new  1-cont  2-samecut
   ICHARG =      2    charge: 1-file 2-atom 10-const
   ISPIN  =      1    spin polarized calculation?
   LNONCOLLINEAR =      F non collinear calculations
   LSORBIT =      F    spin-orbit coupling
   INIWAV =      1    electr: 0-lowe 1-rand  2-diag
   LASPH  =      T    aspherical Exc in radial PAW
   METAGGA=      F    non-selfconsistent MetaGGA calc.

 Electronic Relaxation 1
   ENCUT  =  300.0 eV  22.05 Ry    4.70 a.u.   8.50 11.53 11.53*2*pi/ulx,y,z
   ENINI  =  300.0     initial cutoff
   ENAUG  =  503.9 eV  augmentation charge cutoff
   NELM   =    200;   NELMIN=  2; NELMDL=  0     # of ELM steps
   EDIFF  = 0.1E-05   stopping-criterion for ELM
   LREAL  =      T    real-space projection
   NLSPLINE    = F    spline interpolate recip. space projectors
   LCOMPAT=      F    compatible to vasp.4.4
   GGA_COMPAT  = T    GGA compatible to vasp.4.4-vasp.4.6
   LMAXPAW     = -100 max onsite density
   LMAXMIX     =    2 max onsite mixed and CHGCAR
   VOSKOWN=      0    Vosko Wilk Nusair interpolation
   ROPT   =   -0.00025  -0.00025  -0.00025
 Ionic relaxation
   EDIFFG = -.1E-01   stopping-criterion for IOM
   NSW    =      0    number of steps for IOM
   NBLOCK =      1;   KBLOCK =      1    inner block; outer block
   IBRION =     -1    ionic relax: 0-MD 1-quasi-New 2-CG
   NFREE  =      1    steps in history (QN), initial steepest desc. (CG)
   ISIF   =      3    stress and relaxation
   IWAVPR =     10    prediction:  0-non 1-charg 2-wave 3-comb
   ISYM   =      2    0-nonsym 1-usesym 2-fastsym
   LCORR  =      T    Harris-Foulkes like correction to forces

   POTIM  = 0.5000    time-step for ionic-motion
   TEIN   =    0.0    initial temperature
   TEBEG  =    0.0;   TEEND  =   0.0 temperature during run
   SMASS  =  -3.00    Nose mass-parameter (am)
   estimated Nose-frequenzy (Omega)   =  0.10E-29 period in steps =****** mass=  -0.827E-27a.u.
   SCALEE = 1.0000    scale energy and forces
   NPACO  =    256;   APACO  = 16.0  distance and # of slots for P.C.
   PSTRESS=    0.0 pullay stress

  Mass of Ions in am
   POMASS = 132.90207.20 79.90
  Ionic Valenz
   ZVAL   =   9.00 14.00  7.00
  Atomic Wigner-Seitz radii
  virtual crystal weights
   VCA    =   1.00  1.00  1.00
   NELECT =      88.0000    total number of electrons
   NUPDOWN=      -1.0000    fix difference up-down

 DOS related values:
   EMIN   =  10.00;   EMAX   =-10.00  energy-range for DOS
   EFERMI =   0.00
   ISMEAR =     0;   SIGMA  =   0.01  broadening in eV -4-tet -1-fermi 0-gaus

 Electronic relaxation 2 (details)
   IALGO  =     38    algorithm
   LDIAG  =      T    sub-space diagonalisation (order eigenvalues)
   LSUBROT=      F    optimize rotation matrix (better conditioning)
   TURBO    =      0    0=normal 1=particle mesh
   IRESTART =      0    0=no restart 2=restart with 2 vectors
   NREBOOT  =      0    no. of reboots
[...]

 k-points in units of 2pi/SCALE and weight: 1x1x1
  -0.00000000  0.00000000 -0.00000000       0.028
  -0.00000000  0.00000000 -0.04154797       0.056
  -0.00000000  0.00000000 -0.08309594       0.028
  -0.02886518 -0.02886518 -0.00000000       0.111
  -0.02886518 -0.02886518 -0.04154797       0.222
  -0.02886518 -0.02886518 -0.08309594       0.111
  -0.05773035 -0.00000000 -0.00000000       0.111
  -0.05773035 -0.00000000 -0.04154797       0.222
  -0.05773035 -0.00000000 -0.08309594       0.111

 k-points in reciprocal lattice and weights: 1x1x1
   0.00000000  0.00000000  0.00000000       0.028
   0.25000000  0.00000000  0.00000000       0.056
   0.50000000  0.00000000  0.00000000       0.028
   0.00000000  0.33333333  0.00000000       0.111
   0.25000000  0.33333333  0.00000000       0.222
   0.50000000  0.33333333  0.00000000       0.111
   0.00000000  0.33333333  0.33333333       0.111
   0.25000000  0.33333333  0.33333333       0.222
   0.50000000  0.33333333  0.33333333       0.111

 position of ions in fractional coordinates (direct lattice)
   0.50000000  0.50000000  0.00000000
   0.50000000  0.00000000  0.50000000
   0.00000000  0.00000000  0.00000000
   0.00000000  0.50000000  0.50000000
   0.00000000  0.81400792  0.31400792
   0.00000000  0.18599208  0.68599208
   0.50000000  0.00000000  0.00000000
   0.50000000  0.50000000  0.50000000
   0.00000000  0.68599208  0.81400792
   0.00000000  0.31400792  0.18599208

 position of ions in cartesian coordinates  (Angst):
  -2.88698503 -2.88698503 -3.00857063
  -2.88698503  2.88698503 -3.00857063
  -0.00000000  0.00000000  0.00000000
  -5.77397006  0.00000000  0.00000000
  -6.51312969 -2.88698503  0.00000000
  -5.03481043  2.88698503  0.00000000
  -0.00000000  0.00000000 -3.00857063
  -5.77397006  0.00000000 -3.00857063
  -8.66095509  0.73915963  0.00000000
  -2.88698503 -0.73915963  0.00000000

 k-point  1 :   0.0000 0.0000 0.0000  plane waves:    4789
 k-point  2 :   0.2500 0.0000 0.0000  plane waves:    4749
 k-point  3 :   0.5000 0.0000 0.0000  plane waves:    4720
 k-point  4 :   0.0000 0.3333 0.0000  plane waves:    4747
 k-point  5 :   0.2500 0.3333 0.0000  plane waves:    4735
 k-point  6 :   0.5000 0.3333 0.0000  plane waves:    4718
 k-point  7 :   0.0000 0.3333 0.3333  plane waves:    4730
 k-point  8 :   0.2500 0.3333 0.3333  plane waves:    4736
 k-point  9 :   0.5000 0.3333 0.3333  plane waves:    4722

 maximum and minimum number of plane-waves per node :       630      576

 maximum number of plane-waves:      4789
 maximum index in each direction:
   IXMAX=    8   IYMAX=   11   IZMAX=   11
   IXMIN=   -8   IYMIN=  -11   IZMIN=  -11

 real space projection operators:
  max/ min on nodes  :        608.98        420.17

 parallel 3D FFT for wavefunctions:
    minimum data exchange during FFTs selected (reduces bandwidth)
 parallel 3D FFT for charge:
    minimum data exchange during FFTs selected (reduces bandwidth)

 Broyden mixing: mesh for mixing (old mesh)
   NGX = 17   NGY = 23   NGZ = 23
  (NGX  = 72   NGY  = 96   NGZ  = 96)
  gives a total of   8993 points

 initial charge density was supplied:
 charge density of overlapping atoms calculated
 number of electron      88.0000000 magnetization
 keeping initial charge density in first step

 Maximum index for non-local projection operator          659
 Maximum index for augmentation-charges         3854 (set IRDMAX)

 First call to EWALD:  gamma=   0.240
 Maximum number of real-space cells 3x 3x 3
 Maximum number of reciprocal cells 2x 3x 3

--------------------------------------- Iteration      1(   1)  ---------------------------------------

 eigenvalue-minimisations  :  1024
 total energy-change (2. order) : 0.3326475E+03  (-0.2833971E+04)
 number of electron      88.0000000 magnetization
 augmentation part       88.0000000 magnetization

 Free energy of the ion-electron system (eV)
  alpha Z        PSCENC =       224.82677576
  Ewald energy   TEWEN  =     -4615.76377965
  -Hartree energ DENC   =     -1827.26540265
  -exchange      EXHF   =         0.00000000
  -V(xc)+E(xc)   XCENC  =       231.01346201
  PAW double counting   =      5408.49043633    -5676.98046350
  entropy T*S    EENTRO =        -0.00099924
  eigenvalues    EBANDS =       -56.81254194
  atomic energy  EATOM  =      6645.14004964
  Solvation  Ediel_sol  =         0.00000000
  free energy    TOTEN  =       332.64753677 eV

  energy without entropy =      332.64853601  energy(sigma->0) =      332.64803639

[...]

 eigenvalue-minimisations  :  1272
 total energy-change (2. order) :-0.6282337E+03  (-0.6089032E+03)
 number of electron      88.0000000 magnetization
 augmentation part       88.0000000 magnetization

[...]

 Broyden mixing:
  rms(total) = 0.50462E+00    rms(broyden)= 0.50446E+00
  rms(prec ) = 0.84998E+00
  weight for this iteration     100.00

[...]

 eigenvalues of (default mixing * dielectric matrix)
  average eigenvalue GAMMA=   1.1779
  1.1779

[...]

 eigenvalue-minimisations  :   728
 total energy-change (2. order) :-0.1582685E-05  (-0.3634527E-07)
 number of electron      88.0000000 magnetization
 augmentation part       -1.1639824 magnetization

 Broyden mixing:
  rms(total) = 0.63533E-04    rms(broyden)= 0.62481E-04
  rms(prec ) = 0.79258E-04
  weight for this iteration     100.00

 eigenvalues of (default mixing * dielectric matrix)
  average eigenvalue GAMMA=   1.6441
  3.0788  2.7484  2.3693  1.8977  1.1894  1.1894  1.0711  1.0711  0.9346  0.8912

[...]

--------------------------------------- Iteration      1(  16)  ---------------------------------------

 eigenvalue-minimisations  :   712
 total energy-change (2. order) : 0.8949570E-06  (-0.1043449E-07)
 number of electron      88.0000000 magnetization
 augmentation part       -1.1639824 magnetization

 Free energy of the ion-electron system (eV)
  alpha Z        PSCENC =       224.82677576
  Ewald energy   TEWEN  =     -4615.76377965
  -Hartree energ DENC   =     -1835.13042326
  -exchange      EXHF   =         0.00000000
  -V(xc)+E(xc)   XCENC  =       240.78014566
  PAW double counting   =      5781.64950466    -6049.77151171
  entropy T*S    EENTRO =        -0.00000000
  eigenvalues    EBANDS =      -749.14625330
  atomic energy  EATOM  =      6645.14004964
  Solvation  Ediel_sol  =         0.00000000
  free energy    TOTEN  =      -357.41549219 eV

  energy without entropy =     -357.41549219  energy(sigma->0) =     -357.41549219

 average (electrostatic) potential at core
  the test charge radii are     1.1312  1.1541  1.0178
  (the norm of the test charge is              1.0000)
       1 -55.3120       2 -55.3120       3-101.5550       4-101.5550       5 -68.9301
       6 -68.9301       7 -68.9389       8 -68.9389       9 -68.9301      10 -68.9301

 E-fermi :   0.6389     XC(G=0):  -8.0822     alpha+bet : -7.0543

 k-point     1 :       0.0000    0.0000    0.0000
  band No.  band energies     occupation
      1     -20.8349      2.00000
      2     -20.8325      2.00000
      3     -16.3864      2.00000
      4     -16.3853      2.00000
      5     -16.3559      2.00000
      6     -16.2858      2.00000
      7     -16.2187      2.00000
      8     -16.2187      2.00000
      9     -16.2174      2.00000
     10     -16.2174      2.00000
     11     -16.2118      2.00000
     12     -16.2093      2.00000
     13     -14.3091      2.00000
     14     -13.9609      2.00000
     15     -13.9609      2.00000
     16     -13.8891      2.00000
     17     -13.6820      2.00000
     18     -13.6816      2.00000
     19      -7.6181      2.00000
     20      -7.2648      2.00000
     21      -7.2648      2.00000
     22      -7.2298      2.00000
     23      -7.2027      2.00000
     24      -7.1927      2.00000
     25      -7.1927      2.00000
     26      -6.4409      2.00000
     27      -3.2539      2.00000
     28      -3.2539      2.00000
     29      -3.2456      2.00000
     30      -3.0195      2.00000
     31      -2.1497      2.00000
     32      -1.5750      2.00000
     33      -1.5750      2.00000
     34      -1.5276      2.00000
     35      -1.5276      2.00000
     36      -1.3921      2.00000
     37      -1.2043      2.00000
     38      -1.2043      2.00000
     39      -1.2014      2.00000
     40      -1.1022      2.00000
     41      -0.9967      2.00000
     42      -0.9967      2.00000
     43      -0.9620      2.00000
     44       0.0233      2.00000
     45       3.3924      0.00000
     46       3.3924      0.00000
     47       4.7447      0.00000
     48       5.5794      0.00000
     49       5.8114      0.00000
     50       6.2522      0.00000
     51       6.2522      0.00000
     52       6.4513      0.00000
     53       6.6121      0.00000
     54       6.6121      0.00000
     55       6.6392      0.00000
     56       6.9341      0.00000

[...]

 k-point     9 :       0.5000    0.3333    0.3333
  band No.  band energies     occupation
      1     -20.8319      2.00000
      2     -20.8313      2.00000
      3     -16.3617      2.00000
      4     -16.3414      2.00000
      5     -16.3074      2.00000
      6     -16.2934      2.00000
      7     -16.2192      2.00000
      8     -16.2189      2.00000
      9     -16.2185      2.00000
     10     -16.2182      2.00000
     11     -16.2107      2.00000
     12     -16.2100      2.00000
     13     -14.0592      2.00000
     14     -13.9855      2.00000
     15     -13.9498      2.00000
     16     -13.9490      2.00000
     17     -13.9059      2.00000
     18     -13.8146      2.00000
     19      -7.7597      2.00000
     20      -7.5015      2.00000
     21      -7.2539      2.00000
     22      -7.2413      2.00000
     23      -7.2270      2.00000
     24      -7.2140      2.00000
     25      -7.1816      2.00000
     26      -7.1669      2.00000
     27      -3.0502      2.00000
     28      -2.6296      2.00000
     29      -2.0852      2.00000
     30      -2.0535      2.00000
     31      -2.0309      2.00000
     32      -1.6740      2.00000
     33      -1.6523      2.00000
     34      -1.4819      2.00000
     35      -1.4201      2.00000
     36      -1.4162      2.00000
     37      -1.3637      2.00000
     38      -1.1805      2.00000
     39      -1.1455      2.00000
     40      -1.1065      2.00000
     41      -0.9694      2.00000
     42      -0.8745      2.00000
     43      -0.2899      2.00000
     44       0.0004      2.00000
     45       3.0061      0.00000
     46       3.2130      0.00000
     47       3.2146      0.00000
     48       4.0680      0.00000
     49       5.0380      0.00000
     50       5.8517      0.00000
     51       6.3871      0.00000
     52       6.6535      0.00000
     53       6.6950      0.00000
     54       6.7689      0.00000
     55       7.0168      0.00000
     56       7.2384      0.00000

 soft charge-density along one line, spin component           1
         0         1         2         3         4         5         6         7         8         9
 total charge-density along one line

------------------------ aborting loop because EDIFF is reached ----------------------------------------

 total charge

# of ion       s       p       d       tot
    1        1.784   4.718   0.016   6.519
    2        1.784   4.719   0.016   6.519
    3        1.554   0.424   9.835  11.812
    4        1.554   0.424   9.835  11.812
    5        1.614   3.298   0.006   4.919
    6        1.614   3.298   0.006   4.919
    7        1.613   3.281   0.006   4.900
    8        1.613   3.281   0.006   4.900
    9        1.616   3.275   0.007   4.897
   10        1.616   3.275   0.007   4.897
tot         16.363  29.992  19.739  66.095

  FORCE on cell =-STRESS in cart. coord.  units (eV):
  Direction    XX          YY          ZZ          XY          YZ          ZX
  Alpha Z   224.82678   224.82678   224.82678
  Ewald   -1532.97161 -1532.97161 -1549.82803    -0.00000     0.00000    -0.00000
  Hartree   626.63370   626.63370   581.86474     0.00000     0.00000    -0.00000
  E(xc)    -369.52315  -369.49167  -369.41714    -0.03239     0.00019     0.00028
  Local    -728.06437  -728.06437  -666.09036     0.00000    -0.00000    -0.00000
  n-local   450.42917   450.42054   449.80928     0.08835    -0.03051    -0.02343
  augment   203.12329   203.12330   202.99101    -0.00000     0.00001    -0.00001
  Kinetic  1124.43238  1126.06239  1125.67056    -1.06236     0.01074     0.01181
  Fock        0.00000     0.00000     0.00000     0.00000     0.00000     0.00000
  Total      -0.28738    -0.28738    -0.17317     0.00000    -0.00000    -0.00000
  in kB      -1.14763    -1.14763    -0.69153     0.00000    -0.00000    -0.00000

 VOLUME and BASIS-vectors are now :
  energy-cutoff  :      300.00
  volume of cell :      401.21
      direct lattice vectors                 reciprocal lattice vectors
    -0.000000000 -0.000000000 -6.017141267     0.000000000 -0.000000000 -0.166191877
    -5.773970061 -5.773970061  0.000000000    -0.086595530 -0.086595530  0.000000000
    -5.773970061  5.773970061 -0.000000000    -0.086595530  0.086595530  0.000000000

  length of vectors
     6.017141267  8.165626769  8.165626769     0.166191877  0.122464574  0.122464574

 FORCES acting on ions
    electron-ion (+dipol)            ewald-force                    non-local-force                 convergence-correction
   -.941E-10 0.205E-10 -.123E-09   -.969E-15 0.000E+00 -.513E-14   0.000E+00 0.000E+00 0.000E+00   -.401E-13 0.429E-13 -.427E-13
   -.696E-10 0.584E-10 -.109E-09   -.628E-14 0.711E-14 -.118E-13   -.331E-23 0.000E+00 0.000E+00   0.618E-14 -.534E-13 -.416E-13
   0.716E-13 -.650E-13 -.322E-13   0.000E+00 -.178E-13 0.171E-13   0.000E+00 0.265E-22 0.000E+00   -.311E-13 0.116E-12 0.162E-13
   -.137E-11 -.163E-13 -.325E-13   -.284E-13 0.284E-13 0.160E-13   -.265E-22 0.000E+00 0.000E+00   0.944E-13 0.488E-13 -.555E-14
   0.330E+02 0.488E-06 -.140E-13   -.334E+02 0.338E-13 -.205E-14   0.362E+00 -.173E-17 0.000E+00   0.105E-03 0.684E-13 0.144E-13
   -.330E+02 -.488E-06 0.112E-13   0.334E+02 -.266E-13 0.596E-14   -.362E+00 0.173E-17 -.434E-18   -.105E-03 -.111E-12 0.282E-13
   0.784E-12 -.770E-12 0.903E-14   0.000E+00 0.000E+00 -.440E-14   0.124E-23 0.827E-24 0.000E+00   -.462E-13 0.234E-13 -.413E-13
   -.318E-12 0.256E-13 0.863E-14   -.142E-13 -.622E-14 -.887E-14   0.000E+00 -.165E-23 0.000E+00   0.332E-13 -.105E-13 -.380E-13
   0.682E-06 -.330E+02 0.226E-15   0.575E-14 0.334E+02 0.120E-14   0.173E-17 -.362E+00 -.379E-18   0.151E-13 -.105E-03 0.241E-13
   -.682E-06 0.330E+02 0.195E-14   0.369E-13 -.334E+02 -.181E-14   -.173E-17 0.362E+00 0.163E-18   -.657E-13 0.105E-03 0.233E-13
   -.164E-09 0.783E-10 -.232E-09   0.708E-14 0.711E-14 0.624E-14   0.124E-23 -.555E-16 -.651E-18   0.323E-13 0.187E-12 -.629E-13

 POSITION                                       TOTAL-FORCE (eV/Angst)
     -2.88699     -2.88699     -3.00857         0.000000      0.000000     -0.000000
     -2.88699      2.88699     -3.00857         0.000000      0.000000     -0.000000
     -0.00000      0.00000      0.00000         0.000000      0.000000     -0.000000
     -5.77397      0.00000      0.00000         0.000000     -0.000000     -0.000000
     -6.51313     -2.88699      0.00000         0.017309      0.000000     -0.000000
     -5.03481      2.88699      0.00000        -0.017309      0.000000      0.000000
     -0.00000      0.00000     -3.00857         0.000000      0.000000     -0.000000
     -5.77397      0.00000     -3.00857         0.000000      0.000000     -0.000000
     -8.66096      0.73916      0.00000         0.000000     -0.017309     -0.000000
     -2.88699     -0.73916      0.00000         0.000000      0.017309     -0.000000
    total drift:                               -0.000000      0.000000     -0.000000

  FREE ENERGIE OF THE ION-ELECTRON SYSTEM (eV)
  free  energy   TOTEN  =      -357.41549219 eV

  energy  without entropy=     -357.41549219  energy(sigma->0) =     -357.41549219

 stress matrix after NEB project (eV)
     -0.28738      0.00000     -0.00000
      0.00000     -0.28738     -0.00000
     -0.00000     -0.00000     -0.17317
  FORCES: max atom, RMS     0.017309    0.010947
  FORCE total and by dimension    0.034618    0.017309
  Stress total and by dimension    0.441774    0.287382

 total charge

# of ion       s       p       d       tot
    1        1.784   4.718   0.016   6.519
    2        1.784   4.719   0.016   6.519
    3        1.554   0.424   9.835  11.812
    4        1.554   0.424   9.835  11.812
    5        1.614   3.298   0.006   4.919
    6        1.614   3.298   0.006   4.919
    7        1.613   3.281   0.006   4.900
    8        1.613   3.281   0.006   4.900
    9        1.616   3.275   0.007   4.897
   10        1.616   3.275   0.007   4.897
tot         16.363  29.992  19.739  66.095