 vasp.5.4.4.18Apr17-6-g9f103f2a35 (build Jun 22 2020 09:36:46) gamma-only

 INCAR:
 POTCAR:    PAW_PBE Cs_sv 08Apr2002
 POTCAR:    PAW_PBE Pb_d 06Sep2000
 POTCAR:    PAW_PBE Br 06Sep2000
 POTCAR:    PAW_PBE Cs_sv 08Apr2002
 POTCAR:    PAW_PBE Pb_d 06Sep2000
 POTCAR:    PAW_PBE Br 06Sep2000
 POTCAR:    PAW_PBE Cs_sv 08Apr2002
   VRHFIN =Cs: 5s5p6s

   TITEL  = PAW_PBE Cs_sv 08Apr2002
   POMASS =  132.900; ZVAL   =    9.000    mass and valenz
   ENMAX  =  220.318; ENMIN  =  165.238 eV

   TITEL  = PAW_PBE Pb_d 06Sep2000
   POMASS =  207.200; ZVAL   =   14.000    mass and valenz
   ENMAX  =  237.835; ENMIN  =  178.376 eV

   TITEL  = PAW_PBE Br 06Sep2000
   POMASS =   79.904; ZVAL   =    7.000    mass and valenz
   ENMAX  =  216.285; ENMIN  =  162.214 eV

   TITEL  = PAW_PBE Cs_sv 08Apr2002
   POMASS =  132.900; ZVAL   =    9.000    mass and valenz
   ENMAX  =  220.318; ENMIN  =  165.238 eV

   TITEL  = PAW_PBE Pb_d 06Sep2000
   POMASS =  207.200; ZVAL   =   14.000    mass and valenz
   ENMAX  =  237.835; ENMIN  =  178.376 eV

   TITEL  = PAW_PBE Br 06Sep2000
   POMASS =   79.904; ZVAL   =    7.000    mass and valenz
   ENMAX  =  216.285; ENMIN  =  162.214 eV

 Optimization of the real space projectors (new method)

 maximal supplied QI-value         = 15.12
 optimisation between [QCUT,QGAM] = [  8.77, 17.69] = [ 21.53, 87.61] Ry
 Optimized for a Real-space Cutoff    1.85 Angstroem

   l    n(q)    QCUT    max X(q) W(low)/X(q) W(high)/X(q)  e(spline)
   0     10     8.768    25.322    0.81E-04    0.51E-04    0.48E-06
   0     10     8.768    99.187    0.78E-04    0.50E-04    0.47E-06
   1      9     8.768    11.761    0.21E-03    0.20E-03    0.37E-06
   1      9     8.768     8.275    0.24E-03    0.22E-03    0.41E-06
   2      9     8.768     3.829    0.23E-04    0.15E-03    0.18E-06
 Optimization of the real space projectors (new method)

[...]

   l    n(q)    QCUT    max X(q) W(low)/X(q) W(high)/X(q)  e(spline)
   2      7     8.768     3.846    0.48E-04    0.11E-03    0.11E-06
   2      7     8.768     8.593    0.20E-03    0.22E-04    0.24E-06
   0      8     8.768    20.082    0.68E-04    0.88E-04    0.41E-07
   0      8     8.768     8.597    0.89E-04    0.13E-03    0.59E-07
   1      8     8.768    33.223    0.15E-03    0.53E-04    0.87E-07
   1      8     8.768    15.899    0.14E-03    0.44E-04    0.78E-07
 Optimization of the real space projectors (new method)

 maximal supplied QI-value         = 17.95
 optimisation between [QCUT,QGAM] = [  8.80, 17.59] = [ 21.67, 86.68] Ry
 Optimized for a Real-space Cutoff    1.59 Angstroem

   l    n(q)    QCUT    max X(q) W(low)/X(q) W(high)/X(q)  e(spline)
   0      8     8.797   175.082    0.82E-04    0.14E-03    0.89E-07
   0      8     8.797   174.004    0.79E-04    0.14E-03    0.86E-07
   1      8     8.797    54.315    0.16E-03    0.14E-04    0.30E-06
   1      8     8.797    42.441    0.16E-03    0.14E-04    0.30E-06
   2      7     8.797     3.596    0.92E-04    0.15E-03    0.85E-07
  PAW_PBE Cs_sv 08Apr2002               :
  PAW_PBE Pb_d 06Sep2000                :
  PAW_PBE Br 06Sep2000                  :
  PAW_PBE Cs_sv 08Apr2002               :
  PAW_PBE Pb_d 06Sep2000                :
  PAW_PBE Br 06Sep2000                  :

 POSCAR: Cs63 Pb64 Br192
  positions in direct lattice
  velocities in cartesian coordinates

 METAGGA = SCAN     LMAXTAU =  6    LMIXTAU =  F

 VTST: version 3.2, (02/03/18)

 CHAIN: initializing optimizer

 OPT: Using VASP Conjugate-Gradient optimizer
 CHAIN: Read ICHAIN            0

 POSCAR: Cs63 Pb64 Br192
  positions in direct lattice
  velocities in cartesian coordinates

 ion  position               nearest neighbor table
   1  0.886  0.875  0.354-
   2  0.136  0.875  0.604-
   3  0.886  0.376  0.354-
   4  0.137  0.376  0.604-
   5  0.886  0.875  0.853-
   6  0.136  0.875  0.104-
   7  0.388  0.875  0.354-
   8  0.639  0.875  0.605-
   9  0.886  0.376  0.853-
  10  0.138  0.376  0.106-
  11  0.387  0.875  0.854-
  12  0.636  0.875  0.104-
  13  0.386  0.376  0.854-
  14  0.636  0.376  0.104-
  15  0.104  0.125  0.386-
  16  0.354  0.125  0.637-
  17  0.105  0.625  0.386-
  18  0.104  0.125  0.886-
  19  0.354  0.125  0.136-
  20  0.604  0.126  0.388-
  21  0.854  0.125  0.636-
  22  0.104  0.625  0.886-
  23  0.357  0.625  0.137-
  24  0.851  0.626  0.636-
  25  0.604  0.125  0.886-
  26  0.854  0.125  0.136-
  27  0.603  0.625  0.884-
  28  0.854  0.625  0.136-
  29  0.897  0.875  0.114-
  30  0.147  0.875  0.364-
  31  0.896  0.375  0.114-
  32  0.147  0.376  0.365-
  33  0.896  0.875  0.614-
  34  0.147  0.875  0.864-
  35  0.397  0.875  0.114-
  36  0.647  0.875  0.364-
  37  0.896  0.376  0.614-
  38  0.147  0.376  0.864-
  39  0.397  0.376  0.114-
  40  0.396  0.876  0.615-
  41  0.647  0.876  0.864-
  42  0.648  0.375  0.864-
  43  0.114  0.125  0.147-
  44  0.365  0.126  0.397-
  45  0.114  0.625  0.146-
  46  0.114  0.125  0.647-
  47  0.364  0.125  0.897-
  48  0.614  0.125  0.147-
  49  0.864  0.125  0.397-
  50  0.115  0.625  0.647-
  51  0.366  0.626  0.894-
  52  0.614  0.625  0.147-
  53  0.865  0.625  0.396-
  54  0.614  0.125  0.647-
  55  0.864  0.125  0.896-
  56  0.865  0.625  0.900-
  57  0.750  0.750  0.250- 143 2.99 203 2.99 310 3.01 132 3.01 252 3.02 225 3.02
  58  0.000  0.750  0.500- 144 2.99 220 2.99 200 3.00 133 3.00 226 3.01 241 3.01
  59  0.750  0.250  0.250- 141 2.99 136 3.00 250 3.00 216 3.00 207 3.01 227 3.01
  60  0.000  0.250  0.500- 137 2.99 142 3.00 204 3.01 228 3.01 217 3.01 239 3.01
  61  0.749  0.749  0.750- 315 2.97 149 2.98 223 3.00 138 3.03 229 3.03 209 3.05
  62  0.000  0.750  0.000- 150 3.00 139 3.00 247 3.00 224 3.01 230 3.01 197 3.01
  63  0.251  0.750  0.251- 300 2.99 231 3.00 198 3.00 127 3.01 248 3.01 213 3.01
  64  0.501  0.751  0.504- 301 2.95 208 2.96 311 3.01 232 3.02 128 3.03 314 3.06
  65  0.750  0.251  0.750- 298 2.98 145 3.00 221 3.00 246 3.01 210 3.01 233 3.01
  66  0.000  0.251  0.000- 140 2.99 146 3.00 243 3.00 234 3.01 222 3.01 199 3.01
  67  0.251  0.751  0.750- 153 2.99 236 2.99 242 3.01 130 3.01 201 3.01 218 3.03
  68  0.500  0.751  1.000- 251 2.98 154 2.99 131 3.00 237 3.00 219 3.01 202 3.02
  69  0.250  0.251  0.750- 151 2.99 134 2.99 240 3.00 312 3.00 214 3.01 205 3.01
  70  0.500  0.250  1.000- 135 2.99 152 2.99 249 3.00 238 3.00 215 3.01 206 3.01
  71  0.000  0.750  0.250- 115 2.99 225 3.00 241 3.00 155 3.00 197 3.01 213 3.01
  72  0.250  0.750  0.500- 116 2.98 311 2.99 242 3.00 156 3.01 226 3.01 198 3.02
  73  0.000  0.251  0.250- 113 2.99 157 3.00 227 3.00 239 3.01 211 3.01 199 3.01
  74  1.000  0.750  0.750- 121 2.99 229 2.99 200 3.01 158 3.01 218 3.01 247 3.01
  75  0.250  0.750  0.000- 122 2.99 219 3.00 201 3.00 159 3.01 248 3.01 230 3.01
  76  0.501  0.750  0.251- 123 2.98 314 2.99 310 3.00 160 3.01 202 3.01 231 3.02
  77  0.749  0.750  0.502- 315 2.95 297 2.98 232 3.00 161 3.02 220 3.02 203 3.06
  78  0.000  0.251  0.750- 162 2.99 117 3.00 233 3.00 204 3.01 214 3.01 243 3.01
  79  0.250  0.251  0.000- 118 3.00 163 3.00 205 3.00 215 3.00 234 3.01 244 3.02
  80  0.750  0.251  0.500- 164 2.99 120 2.99 313 3.00 246 3.01 217 3.01 207 3.01
  81  0.504  0.750  0.750- 296 2.95 223 2.96 208 2.99 251 3.04 165 3.04 236 3.07
  82  0.750  0.750  1.000- 126 2.99 209 2.99 237 3.00 166 3.01 252 3.02 224 3.02
  83  0.500  0.252  0.750- 167 2.98 124 3.00 308 3.00 312 3.01 221 3.01 249 3.02
  84  0.750  0.250  0.000- 168 2.99 125 2.99 210 3.00 238 3.01 222 3.01 250 3.01
  85  0.000  0.000  0.250- 155 2.99 113 3.00 169 3.00 183 3.01 267 3.01 253 3.01
  86  0.250  0.000  0.500- 156 2.98 254 3.00 114 3.01 184 3.01 170 3.01 268 3.01
  87  0.001  0.500  0.250- 157 2.99 171 3.00 185 3.00 115 3.00 269 3.01 255 3.02
  88  0.000  0.000  0.750- 158 2.99 173 3.00 117 3.00 270 3.01 256 3.01 187 3.01
  89  0.250  0.000  0.000- 159 2.99 118 3.00 257 3.01 271 3.01 174 3.01 188 3.01
  90  0.500  0.000  0.250- 160 2.98 189 3.00 119 3.01 272 3.01 175 3.01 258 3.01
  91  0.750  0.000  0.500- 161 2.97 176 3.00 190 3.01 120 3.01 273 3.01 259 3.01
  92  1.000  0.501  0.750- 177 2.99 121 2.99 162 3.01 274 3.01 191 3.01 260 3.01
  93  0.251  0.501  0.000- 122 3.00 275 3.00 261 3.00 163 3.00 178 3.01 192 3.02
  94  0.750  0.502  0.503- 307 2.94 297 2.99 305 2.99 164 3.02 262 3.02 277 3.08
  95  0.500  0.000  0.750- 165 2.96 278 3.01 263 3.01 180 3.01 193 3.01 124 3.02
  96  0.750  0.000  0.000- 166 2.99 125 3.00 181 3.00 279 3.01 194 3.01 264 3.01
  97  0.504  0.502  0.750- 265 2.97 296 2.97 318 2.97 167 3.03 195 3.06 304 3.06
  98  0.750  0.501  1.000- 280 2.99 182 2.99 126 3.00 168 3.00 196 3.02 266 3.02
  99  0.750  0.001  0.250- 132 2.99 273 3.00 194 3.01 141 3.01 258 3.01 169 3.01
 100  0.000  0.000  0.500- 133 2.99 142 3.00 259 3.00 270 3.01 170 3.01 183 3.01
 101  0.750  0.501  0.251- 277 2.99 136 3.00 143 3.00 316 3.00 196 3.02 171 3.02
 102  0.001  0.501  0.501- 262 2.99 137 3.00 144 3.00 274 3.00 185 3.01 172 3.02
 103  0.750  0.000  0.750- 138 2.97 263 3.00 190 3.01 279 3.01 145 3.01 173 3.01
 104  0.000  0.000  0.000- 139 2.99 146 3.00 187 3.00 264 3.01 267 3.01 174 3.01
 105  0.250  0.000  0.250- 127 2.99 268 3.00 175 3.01 253 3.01 147 3.01 188 3.01
 106  0.500  0.000  0.501- 128 2.96 278 3.00 254 3.01 176 3.01 189 3.02 148 3.02
 107  0.749  0.503  0.750- 307 2.97 149 2.98 265 2.99 298 3.03 177 3.04 280 3.04
 108  0.000  0.500  0.000- 140 2.99 150 3.00 191 3.00 266 3.01 178 3.01 269 3.01
 109  0.250  0.000  0.750- 130 2.98 180 3.00 151 3.00 184 3.01 256 3.01 271 3.01
 110  0.500  0.001  0.000- 131 2.98 152 3.00 193 3.00 181 3.01 272 3.01 257 3.01
 111  0.251  0.501  0.750- 304 2.99 186 2.99 153 3.00 134 3.00 275 3.02 260 3.02
 112  0.501  0.501  0.000- 195 2.97 135 3.00 154 3.00 182 3.01 261 3.01 276 3.03
 113  0.985  0.126  0.231-  73 2.99  85 3.00
 114  0.235  0.126  0.480- 291 2.99  86 3.01
 115  0.984  0.626  0.231-  71 2.99  87 3.00
 116  0.236  0.626  0.480-  72 2.98 293 3.01
[...]
 266  0.877  0.518  0.027- 108 3.01  98 3.02
 267  0.026  0.982  0.126- 104 3.01  85 3.01
 268  0.276  0.982  0.376- 105 3.00  86 3.01
 269  0.026  0.482  0.126- 108 3.01  87 3.01
 270  0.026  0.982  0.626- 100 3.01  88 3.01
 271  0.276  0.982  0.876-  89 3.01 109 3.01
 272  0.526  0.983  0.126- 110 3.01  90 3.01
 273  0.776  0.983  0.376-  99 3.00  91 3.01
 274  0.026  0.482  0.626- 102 3.00  92 3.01
 275  0.275  0.482  0.877-  93 3.00 111 3.02
 276  0.526  0.483  0.127- 292 3.02 112 3.03
 277  0.776  0.483  0.376- 101 2.99  94 3.08
 278  0.527  0.982  0.626- 106 3.00  95 3.01
 279  0.776  0.983  0.876-  96 3.01 103 3.01
 280  0.778  0.483  0.877-  98 2.99 107 3.04
 281  0.389  0.375  0.354-
 282  0.640  0.378  0.607-
 283  0.603  0.627  0.390-
 284  0.359  0.627  0.639-
 285  0.396  0.376  0.616-
 286  0.649  0.376  0.365-
 287  0.369  0.626  0.400-
 288  0.250  0.251  0.250- 147 2.99 129 3.00 244 3.01 235 3.01 309 3.01 211 3.01
 289  0.500  0.252  0.501- 299 2.98 308 3.00 313 3.00 148 3.01 245 3.02 212 3.02
 290  0.501  0.251  0.250- 119 2.99 302 3.00 216 3.01 206 3.01 245 3.01 235 3.01
 291  0.250  0.251  0.500- 114 2.99 303 3.00 212 3.00 309 3.01 228 3.01 240 3.01
 292  0.503  0.500  0.253- 316 2.99 302 2.99 306 2.99 123 3.01 179 3.02 276 3.02
[...]
   0.282E+02 -.318E+01 0.112E+02   -.281E+02 0.322E+01 -.113E+02   -.677E-01 -.299E-01 0.520E-01   -.671E-04 0.303E-04 0.174E-04
   0.318E+02 0.666E+01 0.162E+02   -.317E+02 -.670E+01 -.163E+02   -.494E-01 0.355E-01 0.857E-01   -.764E-04 0.330E-04 -.344E-04
   0.266E+02 0.228E+01 0.124E+02   -.266E+02 -.231E+01 -.124E+02   -.888E-01 0.197E-01 0.839E-01   0.127E-05 0.187E-04 0.421E-04
   0.282E+02 0.241E+01 0.119E+02   -.281E+02 -.243E+01 -.120E+02   -.888E-01 0.163E-01 0.621E-01   0.399E-04 0.696E-05 -.174E-04
   0.341E+02 0.706E+01 0.749E+01   -.341E+02 -.710E+01 -.752E+01   -.435E-01 0.418E-01 0.369E-01   -.911E-06 0.549E-04 0.139E-04
   0.313E+02 -.649E+01 0.169E+02   -.312E+02 0.655E+01 -.170E+02   -.504E-01 -.459E-01 0.796E-01   -.555E-04 -.582E-04 -.462E-04
   0.268E+02 -.240E+01 0.121E+02   -.267E+02 0.244E+01 -.122E+02   -.838E-01 -.300E-01 0.788E-01   -.121E-04 -.402E-04 0.318E-04
   0.275E+02 -.300E+01 0.103E+02   -.274E+02 0.304E+01 -.104E+02   -.934E-01 -.273E-01 0.668E-01   0.322E-04 0.138E-04 -.280E-04
   0.255E+02 0.805E+01 0.721E+01   -.254E+02 -.816E+01 -.718E+01   -.165E+00 0.117E+00 -.364E-01   0.120E-04 0.224E-06 0.346E-04
   0.215E+02 0.545E+01 0.167E+02   -.214E+02 -.559E+01 -.169E+02   -.107E+00 0.152E+00 0.174E+00   -.743E-05 0.473E-04 -.843E-04
   0.223E+02 -.517E+01 0.185E+02   -.222E+02 0.532E+01 -.186E+02   -.959E-01 -.161E+00 0.168E+00   0.211E-04 -.435E-04 0.150E-04
   -.277E+02 -.883E+00 0.112E+02   0.276E+02 0.891E+00 -.113E+02   0.742E-01 -.244E-02 0.750E-01   0.102E-04 -.336E-04 -.293E-04
   -.276E+02 -.323E+00 0.971E+01   0.275E+02 0.337E+00 -.975E+01   0.764E-01 -.802E-02 0.484E-01   0.360E-04 0.805E-04 0.533E-04
   -.292E+02 0.122E+01 0.908E+01   0.291E+02 -.122E+01 -.915E+01   0.781E-01 -.215E-02 0.585E-01   -.917E-05 0.760E-06 -.557E-04
   -.288E+02 -.383E+00 0.123E+02   0.287E+02 0.394E+00 -.124E+02   0.780E-01 -.822E-02 0.704E-01   -.293E-04 0.134E-04 0.752E-05
   -.294E+02 -.421E+00 0.130E+02   0.293E+02 0.435E+00 -.131E+02   0.518E-01 -.103E-01 0.652E-01   -.350E-04 -.226E-04 0.157E-04
   -.274E+02 -.712E+00 0.113E+02   0.273E+02 0.720E+00 -.114E+02   0.790E-01 -.287E-02 0.792E-01   -.199E-04 0.649E-05 0.284E-04
   -.261E+02 -.523E+00 0.116E+02   0.260E+02 0.534E+00 -.117E+02   0.913E-01 -.657E-02 0.811E-01   -.431E-04 0.923E-05 0.920E-06
   -.300E+02 0.606E+00 0.124E+02   0.300E+02 -.598E+00 -.125E+02   0.792E-01 -.627E-02 0.485E-01   0.850E-04 -.143E-04 0.307E-04
   -.313E+02 0.999E+00 0.114E+02   0.313E+02 -.990E+00 -.115E+02   -.941E-02 -.329E-02 0.719E-01   -.116E-03 0.351E-05 0.671E-04
   -.258E+02 0.500E+00 0.125E+02   0.257E+02 -.501E+00 -.126E+02   0.556E-01 0.428E-02 0.580E-01   0.286E-04 -.399E-04 -.124E-04
   -.166E+02 0.225E+00 0.984E+01   0.164E+02 -.221E+00 -.995E+01   0.163E+00 -.196E-02 0.111E+00   0.818E-04 -.222E-04 -.675E-04
   -.284E+02 -.949E+00 0.133E+02   0.283E+02 0.956E+00 -.134E+02   0.104E+00 -.630E-03 0.965E-01   0.382E-04 -.135E-04 0.326E-04
   -.287E+02 0.595E-01 0.129E+02   0.286E+02 -.445E-01 -.131E+02   0.802E-01 -.112E-01 0.102E+00   0.201E-04 -.932E-05 0.877E-05
   -.301E+02 -.307E+00 0.244E+02   0.300E+02 0.309E+00 -.246E+02   0.510E-01 0.236E-02 0.178E+00   -.299E-04 0.198E-04 0.467E-04
   0.851E+01 0.269E+01 -.826E+00   -.823E+01 -.251E+01 0.491E+00   -.265E+00 -.178E+00 0.322E+00   0.469E-05 -.211E-04 0.161E-04
   0.714E+01 0.489E+01 0.299E+01   -.697E+01 -.471E+01 -.305E+01   -.166E+00 -.183E+00 0.484E-01   -.214E-04 0.362E-04 0.349E-04
   0.373E+01 -.518E+01 -.357E+00   -.371E+01 0.528E+01 0.354E+00   -.196E-01 -.102E+00 -.241E-02   -.689E-04 0.374E-04 0.149E-04
   0.176E+01 -.470E+01 0.131E+01   -.172E+01 0.468E+01 -.137E+01   -.373E-01 0.188E-01 0.466E-01   -.461E-04 0.633E-04 0.423E-04
[...]
   0.259E+02 -.194E+02 0.114E+02   -.262E+02 0.196E+02 -.116E+02   0.249E+00 -.147E+00 0.167E+00   0.312E-04 -.884E-04 0.246E-04
   0.670E+02 -.659E+02 0.531E+02   -.675E+02 0.663E+02 -.535E+02   0.400E+00 -.373E+00 0.363E+00   0.193E-05 -.168E-03 -.490E-04
   -.236E+02 -.251E+02 -.284E+02   0.238E+02 0.253E+02 0.287E+02   -.224E+00 -.208E+00 -.265E+00   -.368E-04 -.900E-05 -.141E-03
   -.201E+02 -.203E+02 -.283E+02   0.203E+02 0.205E+02 0.286E+02   -.198E+00 -.186E+00 -.251E+00   0.427E-04 -.912E-05 0.268E-04
   0.258E+02 0.221E+02 -.307E+02   -.261E+02 -.223E+02 0.309E+02   0.203E+00 0.196E+00 -.239E+00   -.667E-04 0.605E-04 0.153E-04
   0.159E+02 0.241E+02 -.395E+02   -.161E+02 -.243E+02 0.398E+02   0.175E+00 0.162E+00 -.261E+00   -.100E-03 0.121E-04 0.185E-04
   -.243E+02 -.207E+02 0.234E+02   0.245E+02 0.209E+02 -.236E+02   -.203E+00 -.169E+00 0.214E+00   -.942E-04 0.803E-04 0.409E-04
   -.156E+02 -.243E+02 0.242E+02   0.158E+02 0.245E+02 -.244E+02   -.178E+00 -.197E+00 0.218E+00   0.107E-03 0.186E-07 -.226E-04
   0.258E+02 0.191E+02 0.930E+01   -.260E+02 -.192E+02 -.944E+01   0.234E+00 0.121E+00 0.133E+00   -.833E-04 0.267E-04 -.396E-04
   0.664E+02 0.643E+02 0.516E+02   -.668E+02 -.647E+02 -.520E+02   0.378E+00 0.345E+00 0.346E+00   0.472E-04 0.165E-03 0.575E-04
   0.260E+02 -.241E+02 -.327E+02   -.263E+02 0.244E+02 0.330E+02   0.202E+00 -.239E+00 -.283E+00   -.493E-04 -.552E-04 -.154E-04
   0.149E+02 -.243E+02 -.414E+02   -.150E+02 0.245E+02 0.418E+02   0.152E+00 -.183E+00 -.302E+00   -.216E-04 -.850E-04 -.111E-03
   -.344E+02 -.244E+02 -.486E+02   0.346E+02 0.241E+02 0.488E+02   -.165E+00 0.284E+00 -.207E+00   -.414E-04 -.102E-03 -.868E-04
   -.186E+02 0.154E+02 -.298E+02   0.188E+02 -.156E+02 0.301E+02   -.191E+00 0.188E+00 -.248E+00   -.380E-05 0.116E-03 0.137E-04
   0.590E+00 0.602E+01 -.255E+01   0.142E-12 -.166E-11 0.426E-12   -.652E+00 -.642E+01 0.142E+01   0.229E-03 0.337E-03 0.286E-04

 POSITION                                       TOTAL-FORCE (eV/Angst)
      8.95530     20.58509     20.04132        -0.001433      0.000633     -0.001058
     -7.87614     20.58778     11.95418        -0.000025      0.000758      0.000401
      8.95774      8.83786     20.04432        -0.001378     -0.001052     -0.001806
     -7.86873      8.83550     11.96299        -0.000532      0.000570     -0.000879
      0.55060     20.58893     28.10263         0.000618      0.000499     -0.000236
      0.54869     20.58779      3.88322        -0.000053      0.000143     -0.000568
      0.57028     20.59576     11.98013         0.000030     -0.001660     -0.001254
      0.57206     20.58637     20.09481        -0.001635     -0.000109      0.002747
      0.55305      8.83748     28.08867         0.000039      0.000251      0.000671
      0.53738      8.83676      3.93029         0.000629      0.000502     -0.003677
     -7.87060     20.58486     20.04506        -0.000656     -0.000220     -0.000431
      8.95932     20.58478     11.95523        -0.000789     -0.000791      0.000377
     -7.87896      8.84888     20.04688         0.001910     -0.000553      0.000297
      8.96184      8.83783     11.95611        -0.000659      0.001656      0.000228
     -4.75457      2.94869      7.92116         0.000296     -0.000280     -0.001431
     -4.75297      2.94863     16.01456         0.000534     -0.000196      0.001245
     -4.74459     14.70293      7.93286         0.002337     -0.000135     -0.002733
    -13.17438      2.94698     15.99880         0.001723      0.001869     -0.001715
      3.66163      2.94790      7.92331         0.001535      0.001176     -0.002543
      3.63485      2.95414     16.01680         0.000848     -0.000433      0.002651
      3.66222      2.94771     24.07798         0.000659      0.000412     -0.000184
    -13.16527     14.70956     15.99613        -0.000221     -0.001471     -0.000565
      3.69670     14.71154      7.97646         0.002421      0.000054      0.000126
      3.61322     14.72298     24.03067        -0.003638     -0.000148     -0.002882
     -4.75622      2.94933     24.07156         0.000266     -0.001037     -0.000544
     12.08420      2.94567     15.99724         0.000321      0.001080     -0.000013
     -4.73342     14.71434     24.03576         0.001047      0.000408      0.001673
     12.07837     14.71245     15.99262        -0.000013     -0.000101      0.000988
     13.17480     20.58817     16.32853         0.000418      0.001596      0.000356
     -3.66099     20.58922      8.25912         0.001429     -0.000944     -0.000423
     13.17404      8.83316     16.32509         0.000565     -0.000645      0.000155
     -3.65312      8.84949      8.26981        -0.001453     -0.001606      0.002128
      4.74253     20.57839     24.39835        -0.001183      0.000916      0.001405
    -12.08039     20.58469     16.33011        -0.000390     -0.000271      0.000231
      4.75777     20.58772      8.25914         0.000067      0.000720     -0.000861
      4.75914     20.58973     16.33196        -0.001124      0.001189      0.001240
      4.74388      8.84165     24.40342         0.000447      0.000502     -0.001143
    -12.08098      8.83838     16.32824         0.000236      0.000281     -0.000051
      4.75672      8.84021      8.26263         0.001071     -0.000417     -0.000020
     -3.68979     20.60029     16.32007        -0.000107      0.001058     -0.001851
     -3.66055     20.61154     24.41909         0.000713     -0.000446      0.002428
     -3.64307      8.81734     24.44009         0.001086      0.001237     -0.000849
     -0.54354      2.94774      4.21445         0.000675      0.000509      0.001427
     -0.54069      2.95933     12.30508        -0.000139     -0.004132      0.000012
     -0.54184     14.70617      4.20908        -0.000831      0.000695      0.000542
     -8.96770      2.94731     12.29332        -0.000457     -0.000756      0.000028
     -8.96384      2.94781     20.36749         0.000512     -0.001415     -0.000429
      7.86904      2.94710     12.29029         0.002327      0.001126      0.001576
      7.86758      2.94706     20.37184         0.000134      0.000649      0.000172
     -8.96248     14.70777     12.30723         0.000162      0.000126     -0.000357
     -8.88046     14.71601     20.35271         0.003613     -0.000737     -0.000729
      7.87682     14.71097     12.29226        -0.002842     -0.000627     -0.002915
      7.89259     14.70826     20.36771         0.000313      0.000615      0.002701
     -0.54719      2.95189     20.36474        -0.000623     -0.000956     -0.000778
     -0.54607      2.94577     28.44318         0.000798      0.000747      0.000198
     -0.58639     14.71100     28.51782         0.000430      0.000721     -0.000998
      8.41294     17.65634     16.16778         0.003968     -0.003681      0.000976
     -8.42431     17.64800      8.08455         0.000676      0.002271     -0.001771
      8.41964      5.89287     16.15976        -0.004365      0.003022      0.001491
     -8.42022      5.89464      8.08427        -0.003101     -0.002044     -0.001906
[...]
      2.53022     11.33894     17.78497        -0.002710      0.002001     -0.002608
      1.68979     12.15644     13.77143         0.001251     -0.001895      0.002486
      1.69386     12.19096     21.81142        -0.004401     -0.000366     -0.005331
     -1.67603      6.35675     18.63966        -0.002069     -0.003688     -0.004762
     -1.67924      6.32538     10.54723         0.001568      0.001970      0.000675
      5.89804     17.22473     14.57996        -0.000014      0.000830      0.000926
     -2.54581     17.28284     14.58335        -0.001399     -0.000660      0.000119
     -5.90866      6.30609     17.75193         0.005302      0.001089      0.001521
      2.50136      6.34786     17.77787        -0.002156     -0.002472     -0.005589
      1.69562     17.31052     13.74128        -0.001504      0.000006      0.000008
      1.72275     17.28174     21.82084        -0.003325     -0.000383      0.002270
      5.88414     12.25436     14.62912        -0.001885     -0.000277     -0.000921
     -2.53719     12.18646     14.61458         0.000210     -0.006645     -0.006162
     -1.77988     11.16422     18.56358         0.000612     -0.000990     -0.002830
     -1.65974     11.34325     10.56979        -0.000437      0.000716      0.002997
    total drift:                               -0.061582     -0.400920     -1.131681

  FREE ENERGIE OF THE ION-ELECTRON SYSTEM (eV)
  free  energy   TOTEN  =    -11395.71356643 eV

  energy  without entropy=   -11395.71356643  energy(sigma->0) =   -11395.71356643

 d Force = 0.4881912E-03[ 0.408E-03, 0.568E-03]  d Energy = 0.4908112E-03-0.262E-05
 d Force = 0.4594434E+00[ 0.457E+00, 0.462E+00]  d Ewald  = 0.4594408E+00 0.262E-05

 stress matrix after NEB project (eV)
     -4.48498      0.05984     -0.14061
      0.05984     -5.16018     -0.01459
     -0.14066     -0.01457     -8.16150
  FORCES: max atom, RMS     0.009441    0.003236
  FORCE total and by dimension    0.057797    0.007845
  Stress total and by dimension   10.648926    8.161498
 Conjugate gradient step on ions:
 trial-energy change:   -0.000491  1 .order   -0.000488   -0.000568   -0.000408
  (g-gl).g = 0.278E-03      g.g   = 0.275E-03  gl.gl    = 0.311E-03
 g(Force)  = 0.275E-03   g(Stress)= 0.000E+00 ortho     = 0.262E-05
 gamma     =   0.89360
 trial     =   2.04798
 opt step  =   7.27186  (harmonic =   7.27186) maximal distance =0.00735146
 next E    =-11395.714084   (d E  =  -0.00101)

 reached required accuracy - stopping structural energy minimisation

 total charge

# of ion       s       p       d       tot
    1        1.786   4.719   0.019   6.524
    2        1.786   4.719   0.019   6.524
    3        1.786   4.719   0.019   6.524
    4        1.786   4.719   0.019   6.524
    5        1.786   4.719   0.019   6.525
    6        1.786   4.719   0.019   6.524
    7        1.786   4.719   0.019   6.525
    8        1.786   4.719   0.019   6.524
    9        1.786   4.719   0.019   6.524
   10        1.786   4.719   0.019   6.524
   11        1.786   4.719   0.019   6.525
   12        1.786   4.719   0.019   6.524
   13        1.786   4.719   0.019   6.525
   14        1.786   4.719   0.019   6.524
   15        1.786   4.719   0.019   6.524
   16        1.786   4.719   0.019   6.524
   17        1.786   4.719   0.019   6.524
   18        1.786   4.719   0.019   6.524
   19        1.786   4.719   0.019   6.524
   20        1.786   4.719   0.019   6.524
   21        1.786   4.719   0.019   6.524
   22        1.786   4.719   0.019   6.524
   23        1.786   4.719   0.019   6.524
   24        1.786   4.719   0.019   6.524
   25        1.786   4.719   0.019   6.524
   26        1.786   4.719   0.019   6.524
   27        1.786   4.719   0.019   6.524
   28        1.786   4.719   0.019   6.525
   29        1.786   4.719   0.019   6.524
   30        1.786   4.719   0.019   6.524
   31        1.786   4.719   0.019   6.524
   32        1.786   4.719   0.019   6.524
   33        1.786   4.719   0.019   6.524
   34        1.786   4.719   0.019   6.524
   35        1.786   4.719   0.019   6.525
   36        1.786   4.719   0.019   6.525
   37        1.786   4.719   0.019   6.524
   38        1.786   4.719   0.019   6.524
   39        1.786   4.719   0.019   6.524
   40        1.786   4.719   0.020   6.525
   41        1.786   4.719   0.020   6.526
   42        1.786   4.719   0.020   6.526
   43        1.786   4.719   0.019   6.524
   44        1.786   4.719   0.019   6.524
   45        1.786   4.719   0.019   6.524
   46        1.786   4.719   0.019   6.524
   47        1.786   4.719   0.019   6.524
   48        1.786   4.719   0.019   6.524
   49        1.786   4.719   0.019   6.525
   50        1.786   4.719   0.019   6.524
   51        1.786   4.719   0.018   6.523
   52        1.786   4.719   0.019   6.524
   53        1.786   4.719   0.020   6.525
   54        1.786   4.719   0.019   6.524
   55        1.786   4.719   0.019   6.525
   56        1.787   4.719   0.020   6.526
   57        1.555   0.417   9.833  11.805
   58        1.555   0.417   9.833  11.806
   59        1.555   0.417   9.833  11.805
   60        1.555   0.417   9.833  11.805
[...]
  305        1.614   3.285   0.006   4.905
  306        1.614   3.285   0.006   4.904
  307        1.615   3.276   0.007   4.898
  308        1.614   3.283   0.006   4.903
  309        1.614   3.284   0.006   4.904
  310        1.614   3.284   0.006   4.904
  311        1.614   3.285   0.006   4.905
  312        1.614   3.285   0.006   4.905
  313        1.614   3.284   0.006   4.904
  314        1.614   3.285   0.006   4.905
  315        1.615   3.276   0.006   4.897
  316        1.614   3.284   0.006   4.904
  317        1.614   3.285   0.006   4.905
  318        1.615   3.285   0.006   4.906
  319        1.614   3.284   0.006   4.904
tot        521.907 954.713 631.6932108.313