 vasp.5.4.4.18Apr17-6-g9f103f2a35 (build Jun 22 2020 09:27:21) complex

 INCAR:
 POTCAR:    PAW_PBE Cs_sv 08Apr2002
 POTCAR:    PAW_PBE Pb_d 06Sep2000
 POTCAR:    PAW_PBE Br 06Sep2000
 POTCAR:    PAW_PBE Cs_sv 08Apr2002
   VRHFIN =Cs: 5s5p6s

   TITEL  = PAW_PBE Cs_sv 08Apr2002
   POMASS =  132.900; ZVAL   =    9.000    mass and valenz
   ENMAX  =  220.318; ENMIN  =  165.238 eV

 POTCAR:    PAW_PBE Pb_d 06Sep2000
   VRHFIN =Pb:

   TITEL  = PAW_PBE Pb_d 06Sep2000
   POMASS =  207.200; ZVAL   =   14.000    mass and valenz
   ENMAX  =  237.835; ENMIN  =  178.376 eV

 POTCAR:    PAW_PBE Br 06Sep2000
   VRHFIN =Br: s2p5

   TITEL  = PAW_PBE Br 06Sep2000
   POMASS =   79.904; ZVAL   =    7.000    mass and valenz
   ENMAX  =  216.285; ENMIN  =  162.214 eV

 Optimization of the real space projectors (new method)

 maximal supplied QI-value         = 15.12
 optimisation between [QCUT,QGAM] = [  8.77, 17.69] = [ 21.53, 87.61] Ry
 Optimized for a Real-space Cutoff    1.85 Angstroem

   l    n(q)    QCUT    max X(q) W(low)/X(q) W(high)/X(q)  e(spline)
   0     10     8.768    25.322    0.81E-04    0.51E-04    0.48E-06
   0     10     8.768    99.187    0.78E-04    0.50E-04    0.47E-06
   1      9     8.768    11.761    0.21E-03    0.20E-03    0.37E-06
   1      9     8.768     8.275    0.24E-03    0.22E-03    0.41E-06
   2      9     8.768     3.829    0.23E-04    0.15E-03    0.18E-06
 Optimization of the real space projectors (new method)

[...]

   l    n(q)    QCUT    max X(q) W(low)/X(q) W(high)/X(q)  e(spline)
   2      7     8.768     3.846    0.48E-04    0.11E-03    0.11E-06
   2      7     8.768     8.593    0.20E-03    0.22E-04    0.24E-06
   0      8     8.768    20.082    0.68E-04    0.88E-04    0.41E-07
   0      8     8.768     8.597    0.89E-04    0.13E-03    0.59E-07
   1      8     8.768    33.223    0.15E-03    0.53E-04    0.87E-07
   1      8     8.768    15.899    0.14E-03    0.44E-04    0.78E-07
 Optimization of the real space projectors (new method)

 maximal supplied QI-value         = 17.95
 optimisation between [QCUT,QGAM] = [  8.80, 17.59] = [ 21.67, 86.68] Ry
 Optimized for a Real-space Cutoff    1.59 Angstroem

   l    n(q)    QCUT    max X(q) W(low)/X(q) W(high)/X(q)  e(spline)
   0      8     8.797   175.082    0.82E-04    0.14E-03    0.89E-07
   0      8     8.797   174.004    0.79E-04    0.14E-03    0.86E-07
   1      8     8.797    54.315    0.16E-03    0.14E-04    0.30E-06
   1      8     8.797    42.441    0.16E-03    0.14E-04    0.30E-06
   2      7     8.797     3.596    0.92E-04    0.15E-03    0.85E-07
  PAW_PBE Cs_sv 08Apr2002               :
  PAW_PBE Pb_d 06Sep2000                :
  PAW_PBE Br 06Sep2000                  :

 POSCAR: Cs2 Pb2 Br6
  positions in direct lattice
  velocities in cartesian coordinates

 METAGGA = SCAN     LMAXTAU =  6    LMIXTAU =  F

 VTST: version 3.2, (02/03/18)

 CHAIN: initializing optimizer

 OPT: Using VASP Conjugate-Gradient optimizer
 CHAIN: Read ICHAIN            0

 POSCAR: Cs2 Pb2 Br6
  positions in direct lattice
  velocities in cartesian coordinates

 ion  position               nearest neighbor table
   1  0.750  0.750  0.750-
   2  0.250  0.250  0.250-
   3  0.000  0.000  0.000-   5 2.98   6 2.98   9 2.98  10 2.98   7 3.00   8 3.00
   4  0.500  0.500  0.500-   5 2.98   6 2.98   9 2.98  10 2.98   7 3.00   8 3.00
   5  0.188  0.688  0.312-   3 2.98   4 2.98
   6  0.812  0.312  0.688-   3 2.98   4 2.98
   7  0.250  0.750  0.750-   3 3.00   4 3.00
   8  0.750  0.250  0.250-   3 3.00   4 3.00
   9  0.312  0.188  0.812-   3 2.98   4 2.98
  10  0.688  0.812  0.188-   3 2.98   4 2.98

  LATTYP: Found a body centered tetragonal cell.
 ALAT       =     8.1894661178
 C/A-ratio  =     1.4651816459

  Lattice vectors:

 A1 = (   5.7908270262,   0.0000000000,   5.9995277225)
 A2 = (  -5.7908270262,   0.0000000000,   5.9995277225)
 A3 = (   0.0000000000,  -5.7908270262,  -5.9995277225)

Analysis of symmetry for initial positions (statically):
 Subroutine PRICEL returns:
 Original cell was already a primitive cell.

 Routine SETGRP: Setting up the symmetry group for a
 body centered tetragonal supercell.

 Subroutine GETGRP returns: Found 16 space group operations
 (whereof  8 operations were pure point group operations)
 out of a pool of 16 trial point group operations.

The static configuration has the point symmetry C_4h.
 The point group associated with its full space group is D_4h.

Analysis of symmetry for dynamics (positions and initial velocities):
 Subroutine PRICEL returns:
 Original cell was already a primitive cell.

 Routine SETGRP: Setting up the symmetry group for a
 body centered tetragonal supercell.

 Subroutine GETGRP returns: Found 16 space group operations
 (whereof  8 operations were pure point group operations)
 out of a pool of 16 trial point group operations.

The dynamic configuration has the point symmetry C_4h.
 The point group associated with its full space group is D_4h.

 Subroutine INISYM returns: Found 16 space group operations
 (whereof  8 operations are pure point group operations),
 and found     1 'primitive' translations

 KPOINTS: 1x1x1

Automatic generation of k-mesh.
Space group operators:
 irot       det(A)        alpha          n_x          n_y          n_z        tau_x        tau_y        tau_z
    1     1.000000     0.000000     1.000000     0.000000     0.000000     0.000000     0.000000     0.000000
    2    -1.000000     0.000000     1.000000     0.000000     0.000000     0.000000     0.000000     0.000000
    3     1.000000    90.000000     0.000000     0.000000    -1.000000     0.000000     0.000000     0.000000
    4    -1.000000    90.000000     0.000000     0.000000    -1.000000     0.000000     0.000000     0.000000
    5     1.000000   180.000000     0.000000    -0.000000     1.000000     0.000000     0.000000     0.000000
    6    -1.000000   180.000000     0.000000    -0.000000     1.000000     0.000000     0.000000     0.000000
    7     1.000000    90.000000     0.000000     0.000000     1.000000     0.000000     0.000000     0.000000
    8    -1.000000    90.000000     0.000000     0.000000     1.000000     0.000000     0.000000     0.000000
    9     1.000000   180.000000    -0.707107     0.707107     0.000000     0.500000    -0.500000    -0.500000
   10    -1.000000   180.000000    -0.707107     0.707107     0.000000     0.500000    -0.500000    -0.500000
   11     1.000000   180.000000     0.000000     1.000000     0.000000     0.500000    -0.500000    -0.500000
   12    -1.000000   180.000000     0.000000     1.000000     0.000000     0.500000    -0.500000    -0.500000
   13     1.000000   180.000000     0.707107     0.707107     0.000000     0.500000    -0.500000    -0.500000
   14    -1.000000   180.000000     0.707107     0.707107     0.000000     0.500000    -0.500000    -0.500000
   15     1.000000   180.000000     1.000000     0.000000     0.000000     0.500000    -0.500000    -0.500000
   16    -1.000000   180.000000     1.000000     0.000000     0.000000     0.500000    -0.500000    -0.500000

 Subroutine IBZKPT returns following result:

 Found      6 irreducible k-points:

 Following reciprocal coordinates:
            Coordinates               Weight
  0.000000  0.000000  0.000000      1.000000
  0.333333  0.000000  0.000000      8.000000
  0.333333  0.333333  0.000000      4.000000
 -0.333333  0.333333  0.000000      8.000000
  0.000000  0.333333  0.333333      2.000000
 -0.333333  0.333333  0.333333      4.000000

 Following cartesian coordinates:
            Coordinates               Weight
  0.000000  0.000000 -0.000000      1.000000
  0.028781  0.028781  0.027780      8.000000
  0.057562  0.000000 -0.000000      4.000000
  0.000000 -0.057562 -0.055560      8.000000
  0.000000  0.000000 -0.055560      2.000000
 -0.028781 -0.028781 -0.083340      4.000000

 SYSTEM =  CsPbBr3 cubic bulk
 POSCAR =  Cs2 Pb2 Br6

 Startparameter for this run:
   NWRITE =      2    write-flag & timer
   PREC   = accura    normal or accurate (medium, high low for compatibility)
   ISTART =      0    job   : 0-new  1-cont  2-samecut
   ICHARG =      2    charge: 1-file 2-atom 10-const
   ISPIN  =      1    spin polarized calculation?
   LNONCOLLINEAR =      F non collinear calculations
   LSORBIT =      F    spin-orbit coupling
   INIWAV =      1    electr: 0-lowe 1-rand  2-diag
   LASPH  =      T    aspherical Exc in radial PAW
   METAGGA=      F    non-selfconsistent MetaGGA calc.

 Electronic Relaxation 1
   ENCUT  =  300.0 eV  22.05 Ry    4.70 a.u.  11.57 11.78 11.78*2*pi/ulx,y,z
   ENINI  =  300.0     initial cutoff
   ENAUG  =  503.9 eV  augmentation charge cutoff
   NELM   =    200;   NELMIN=  2; NELMDL=  0     # of ELM steps
   EDIFF  = 0.1E-05   stopping-criterion for ELM
   LREAL  =      T    real-space projection
   NLSPLINE    = F    spline interpolate recip. space projectors
   LCOMPAT=      F    compatible to vasp.4.4
   GGA_COMPAT  = T    GGA compatible to vasp.4.4-vasp.4.6
   LMAXPAW     = -100 max onsite density
   LMAXMIX     =    2 max onsite mixed and CHGCAR
   VOSKOWN=      0    Vosko Wilk Nusair interpolation
   ROPT   =   -0.00025  -0.00025  -0.00025
 Ionic relaxation
   EDIFFG = -.1E-01   stopping-criterion for IOM
   NSW    =      0    number of steps for IOM
   NBLOCK =      1;   KBLOCK =      1    inner block; outer block
   IBRION =     -1    ionic relax: 0-MD 1-quasi-New 2-CG
   NFREE  =      1    steps in history (QN), initial steepest desc. (CG)
   ISIF   =      3    stress and relaxation
   IWAVPR =     10    prediction:  0-non 1-charg 2-wave 3-comb
   ISYM   =      2    0-nonsym 1-usesym 2-fastsym
   LCORR  =      T    Harris-Foulkes like correction to forces

   POTIM  = 0.5000    time-step for ionic-motion
   TEIN   =    0.0    initial temperature
   TEBEG  =    0.0;   TEEND  =   0.0 temperature during run
   SMASS  =  -3.00    Nose mass-parameter (am)
   estimated Nose-frequenzy (Omega)   =  0.10E-29 period in steps =****** mass=  -0.153E-26a.u.
   SCALEE = 1.0000    scale energy and forces
   NPACO  =    256;   APACO  = 16.0  distance and # of slots for P.C.
   PSTRESS=    0.0 pullay stress

  Mass of Ions in am
   POMASS = 132.90207.20 79.90
  Ionic Valenz
   ZVAL   =   9.00 14.00  7.00
  Atomic Wigner-Seitz radii
  virtual crystal weights
   VCA    =   1.00  1.00  1.00
   NELECT =      88.0000    total number of electrons
   NUPDOWN=      -1.0000    fix difference up-down

 DOS related values:
   EMIN   =  10.00;   EMAX   =-10.00  energy-range for DOS
   EFERMI =   0.00
   ISMEAR =     0;   SIGMA  =   0.01  broadening in eV -4-tet -1-fermi 0-gaus

 Electronic relaxation 2 (details)
   IALGO  =     38    algorithm
   LDIAG  =      T    sub-space diagonalisation (order eigenvalues)
   LSUBROT=      F    optimize rotation matrix (better conditioning)
   TURBO    =      0    0=normal 1=particle mesh
   IRESTART =      0    0=no restart 2=restart with 2 vectors
   NREBOOT  =      0    no. of reboots
   NMIN     =      0    reboot dimension
   EREF     =   0.00    reference energy to select bands
   IMIX   =      4    mixing-type and parameters
     AMIX     =   0.40;   BMIX     =  1.00
     AMIX_MAG =   1.60;   BMIX_MAG =  1.00
[...]

  energy-cutoff  :      300.00
  volume of cell :      402.37
      direct lattice vectors                 reciprocal lattice vectors
     5.790827026  5.790827026 -0.000000000     0.086343453  0.086343453  0.083339893
     5.790827026  0.000000000 -5.999527723     0.086343453 -0.086343453 -0.083339893
    -0.000000000  5.790827026 -5.999527723    -0.086343453  0.086343453 -0.083339893

  length of vectors
     8.189466118  8.338345792  8.338345792     0.147837483  0.147837483  0.147837483

 k-points in units of 2pi/SCALE and weight: 1x1x1
   0.00000000  0.00000000 -0.00000000       0.037
   0.02878115  0.02878115  0.02777996       0.296
   0.05756230  0.00000000 -0.00000000       0.148
   0.00000000 -0.05756230 -0.05555993       0.296
   0.00000000  0.00000000 -0.05555993       0.074
  -0.02878115 -0.02878115 -0.08333989       0.148

 k-points in reciprocal lattice and weights: 1x1x1
   0.00000000  0.00000000  0.00000000       0.037
   0.33333333  0.00000000  0.00000000       0.296
   0.33333333  0.33333333  0.00000000       0.148
  -0.33333333  0.33333333  0.00000000       0.296
   0.00000000  0.33333333  0.33333333       0.074
  -0.33333333  0.33333333  0.33333333       0.148

 position of ions in fractional coordinates (direct lattice)
   0.75000000  0.75000000  0.75000000
   0.25000000  0.25000000  0.25000000
   0.00000000  0.00000000  0.00000000
   0.50000000  0.50000000  0.50000000
   0.18808263  0.68808263  0.31191737
   0.81191737  0.31191737  0.68808263
   0.25000000  0.75000000  0.75000000
   0.75000000  0.25000000  0.25000000
   0.31191737  0.18808263  0.81191737
   0.68808263  0.81191737  0.18808263

 position of ions in cartesian coordinates  (Angst):
   8.68624054  8.68624054 -8.99929158
   2.89541351  2.89541351 -2.99976386
   0.00000000  0.00000000 -0.00000000
   5.79082703  5.79082703 -5.99952772
   5.07372141  2.89541351 -5.99952772
   6.50793264  8.68624054 -5.99952772
   5.79082703  5.79082703 -8.99929158
   5.79082703  5.79082703 -2.99976386
   2.89541351  6.50793264 -5.99952772
   8.68624054  5.07372141 -5.99952772

 k-point  1 :   0.0000 0.0000 0.0000  plane waves:    4733
 k-point  2 :   0.3333 0.0000 0.0000  plane waves:    4760
 k-point  3 :   0.3333 0.3333 0.0000  plane waves:    4752
 k-point  4 :  -0.3333 0.3333 0.0000  plane waves:    4742
 k-point  5 :   0.0000 0.3333 0.3333  plane waves:    4777
 k-point  6 :  -0.3333 0.3333 0.3333  plane waves:    4740

 maximum and minimum number of plane-waves per node :       609      579

 maximum number of plane-waves:      4777
 maximum index in each direction:
   IXMAX=   11   IYMAX=   11   IZMAX=   11
   IXMIN=  -11   IYMIN=  -12   IZMIN=  -12

 real space projection operators:
  max/ min on nodes  :        689.12        676.28

 parallel 3D FFT for wavefunctions:
    minimum data exchange during FFTs selected (reduces bandwidth)
 parallel 3D FFT for charge:
    minimum data exchange during FFTs selected (reduces bandwidth)

 Broyden mixing: mesh for mixing (old mesh)
   NGX = 23   NGY = 23   NGZ = 23
  (NGX  = 96   NGY  = 96   NGZ  = 96)
  gives a total of  12167 points

 initial charge density was supplied:
 charge density of overlapping atoms calculated
 number of electron      88.0000000 magnetization
 keeping initial charge density in first step

 Maximum index for non-local projection operator          846
 Maximum index for augmentation-charges         2593 (set IRDMAX)

 First call to EWALD:  gamma=   0.240
 Maximum number of real-space cells 3x 3x 3
 Maximum number of reciprocal cells 3x 3x 3

--------------------------------------- Iteration      1(   1)  ---------------------------------------

 eigenvalue-minimisations  :   680
 total energy-change (2. order) : 0.3249972E+03  (-0.2813693E+04)
 number of electron      88.0000000 magnetization
 augmentation part       88.0000000 magnetization

 Free energy of the ion-electron system (eV)
  alpha Z        PSCENC =       224.17596381
  Ewald energy   TEWEN  =     -4608.29204336
  -Hartree energ DENC   =     -1832.53849837
  -exchange      EXHF   =         0.00000000
  -V(xc)+E(xc)   XCENC  =       230.97781891
  PAW double counting   =      5408.49043633    -5676.98046350
  entropy T*S    EENTRO =        -0.00126119
  eigenvalues    EBANDS =       -65.97482417
  atomic energy  EATOM  =      6645.14004964
  Solvation  Ediel_sol  =         0.00000000
  free energy    TOTEN  =       324.99717809 eV

  energy without entropy =      324.99843929  energy(sigma->0) =      324.99780869

[...]

 eigenvalue-minimisations  :   840
 total energy-change (2. order) :-0.6234578E+03  (-0.6069676E+03)
 number of electron      88.0000000 magnetization
 augmentation part       88.0000000 magnetization

[...]

 Broyden mixing:
  rms(total) = 0.50451E+00    rms(broyden)= 0.50435E+00
  rms(prec ) = 0.96447E+00
  weight for this iteration     100.00

[...]

 eigenvalues of (default mixing * dielectric matrix)
  average eigenvalue GAMMA=   1.1865
  1.1865

[...]

 eigenvalue-minimisations  :   632
 total energy-change (2. order) :-0.6544441E-05  (-0.1903001E-06)
 number of electron      88.0000000 magnetization
 augmentation part       -1.1635817 magnetization

 Broyden mixing:
  rms(total) = 0.15673E-03    rms(broyden)= 0.15167E-03
  rms(prec ) = 0.22537E-03
  weight for this iteration     100.00

 eigenvalues of (default mixing * dielectric matrix)
  average eigenvalue GAMMA=   1.4945
  3.0110  2.4227  1.8496  1.1869  1.1869  1.2234  1.0487  0.9283  0.5925

[...]

--------------------------------------- Iteration      1(  15)  ---------------------------------------

 eigenvalue-minimisations  :   480
 total energy-change (2. order) : 0.4209488E-06  (-0.5548329E-07)
 number of electron      88.0000000 magnetization
 augmentation part       -1.1635817 magnetization

 Free energy of the ion-electron system (eV)
  alpha Z        PSCENC =       224.17596381
  Ewald energy   TEWEN  =     -4608.29204336
  -Hartree energ DENC   =     -1840.36992338
  -exchange      EXHF   =         0.00000000
  -V(xc)+E(xc)   XCENC  =       240.73262635
  PAW double counting   =      5781.61322187    -6049.75066581
  entropy T*S    EENTRO =        -0.00000000
  eigenvalues    EBANDS =      -750.68038175
  atomic energy  EATOM  =      6645.14004964
  Solvation  Ediel_sol  =         0.00000000
  free energy    TOTEN  =      -357.43115263 eV

  energy without entropy =     -357.43115263  energy(sigma->0) =     -357.43115263

 average (electrostatic) potential at core
  the test charge radii are     1.1312  1.1541  1.0178
  (the norm of the test charge is              1.0000)
       1 -55.3437       2 -55.3437       3-101.5657       4-101.5657       5 -68.9425
       6 -68.9425       7 -68.9716       8 -68.9716       9 -68.9425      10 -68.9425

 E-fermi :   0.6342     XC(G=0):  -8.0685     alpha+bet : -7.0339

 k-point     1 :       0.0000    0.0000    0.0000
  band No.  band energies     occupation
      1     -20.8634      2.00000
      2     -20.8591      2.00000
      3     -16.3958      2.00000
      4     -16.3958      2.00000
      5     -16.3033      2.00000
      6     -16.2972      2.00000
      7     -16.2307      2.00000
      8     -16.2306      2.00000
      9     -16.2290      2.00000
     10     -16.2289      2.00000
     11     -16.2232      2.00000
     12     -16.2211      2.00000
     13     -14.3263      2.00000
     14     -13.9778      2.00000
     15     -13.9684      2.00000
     16     -13.9684      2.00000
     17     -13.7058      2.00000
     18     -13.6999      2.00000
     19      -8.1471      2.00000
     20      -7.3042      2.00000
     21      -7.3041      2.00000
     22      -7.2516      2.00000
     23      -7.2436      2.00000
     24      -7.2435      2.00000
     25      -7.2227      2.00000
     26      -6.4479      2.00000
     27      -3.2862      2.00000
     28      -3.2556      2.00000
     29      -3.2556      2.00000
     30      -1.9207      2.00000
     31      -1.8619      2.00000
     32      -1.8618      2.00000
     33      -1.4034      2.00000
     34      -1.3749      2.00000
     35      -1.3636      2.00000
     36      -1.3170      2.00000
     37      -1.3169      2.00000
     38      -1.1287      2.00000
     39      -1.0823      2.00000
     40      -1.0822      2.00000
     41      -0.9613      2.00000
     42      -0.8903      2.00000
     43      -0.8903      2.00000
     44       0.5861      2.00000
     45       2.6641      0.00000
     46       2.9648      0.00000
     47       2.9649      0.00000
     48       4.7194      0.00000
     49       5.5711      0.00000
     50       6.4555      0.00000
     51       6.4963      0.00000
     52       6.4963      0.00000
     53       6.5035      0.00000
     54       6.5038      0.00000
     55       6.5842      0.00000
     56       6.7186      0.00000

[...]

 k-point     6 :      -0.3333    0.3333    0.3333
  band No.  band energies     occupation
      1     -20.8615      2.00000
      2     -20.8607      2.00000
      3     -16.3733      2.00000
      4     -16.3722      2.00000
      5     -16.3307      2.00000
      6     -16.3234      2.00000
      7     -16.2302      2.00000
      8     -16.2300      2.00000
      9     -16.2298      2.00000
     10     -16.2297      2.00000
     11     -16.2227      2.00000
     12     -16.2216      2.00000
     13     -14.1253      2.00000
     14     -14.1101      2.00000
     15     -13.9814      2.00000
     16     -13.9034      2.00000
     17     -13.8019      2.00000
     18     -13.7601      2.00000
     19      -7.4329      2.00000
     20      -7.3889      2.00000
     21      -7.2639      2.00000
     22      -7.2470      2.00000
     23      -7.2466      2.00000
     24      -7.2441      2.00000
     25      -7.2308      2.00000
     26      -7.1781      2.00000
     27      -3.1392      2.00000
     28      -2.9015      2.00000
     29      -2.7055      2.00000
     30      -2.1619      2.00000
     31      -2.0201      2.00000
     32      -1.9649      2.00000
     33      -1.6794      2.00000
     34      -1.6292      2.00000
     35      -1.4580      2.00000
     36      -1.3541      2.00000
     37      -1.2905      2.00000
     38      -1.2790      2.00000
     39      -1.2529      2.00000
     40      -1.1020      2.00000
     41      -1.0815      2.00000
     42      -1.0434      2.00000
     43      -0.6074      2.00000
     44      -0.4018      2.00000
     45       3.2980      0.00000
     46       4.0309      0.00000
     47       4.1553      0.00000
     48       5.3061      0.00000
     49       5.3683      0.00000
     50       5.9769      0.00000
     51       6.1840      0.00000
     52       6.3918      0.00000
     53       6.4046      0.00000
     54       6.8978      0.00000
     55       7.0371      0.00000
     56       7.0625      0.00000

 soft charge-density along one line, spin component           1
         0         1         2         3         4         5         6         7         8         9
 total charge-density along one line

------------------------ aborting loop because EDIFF is reached ----------------------------------------

 total charge

# of ion       s       p       d       tot
    1        1.784   4.718   0.016   6.518
    2        1.784   4.718   0.016   6.518
    3        1.553   0.426   9.834  11.813
    4        1.553   0.426   9.834  11.813
    5        1.615   3.283   0.007   4.904
    6        1.615   3.283   0.007   4.904
    7        1.614   3.279   0.006   4.899
    8        1.614   3.279   0.006   4.899
    9        1.615   3.289   0.007   4.910
   10        1.615   3.289   0.007   4.910
tot         16.361  29.991  19.739  66.090

  FORCE on cell =-STRESS in cart. coord.  units (eV):
  Direction    XX          YY          ZZ          XY          YZ          ZX
  Alpha Z   224.17596   224.17596   224.17596
  Ewald   -1534.71025 -1534.71025 -1538.87932    -0.00000     0.00000    -0.00000
  Hartree   625.33111   625.33111   589.70905     0.00000    -0.00000    -0.00000
  E(xc)    -369.50456  -369.47457  -369.38721    -0.03295    -0.03859    -0.01866
  Local    -724.37504  -724.37504  -684.25548    -0.00028     0.00031     0.00031
  n-local   450.17321   450.37540   449.98606     0.07885     0.03843     0.03039
  augment   203.18493   203.18493   203.00118     0.00041     0.00013     0.00012
  Kinetic  1124.68265  1125.70730  1125.36091    -1.05706    -1.40099    -0.70206
  Fock        0.00000     0.00000     0.00000     0.00000     0.00000     0.00000
  Total      -0.41357    -0.41357    -0.28884     0.00000     0.00000    -0.00000
  in kB      -1.64675    -1.64675    -1.15011     0.00000     0.00000    -0.00000

 VOLUME and BASIS-vectors are now :
  energy-cutoff  :      300.00
  volume of cell :      402.37
      direct lattice vectors                 reciprocal lattice vectors
     5.790827026  5.790827026 -0.000000000     0.086343453  0.086343453  0.083339893
     5.790827026  0.000000000 -5.999527723     0.086343453 -0.086343453 -0.083339893
    -0.000000000  5.790827026 -5.999527723    -0.086343453  0.086343453 -0.083339893

  length of vectors
     8.189466118  8.338345792  8.338345792     0.147837483  0.147837483  0.147837483

 FORCES acting on ions
    electron-ion (+dipol)            ewald-force                    non-local-force                 convergence-correction
   0.178E-04 -.178E-04 -.158E-07   0.192E-13 0.195E-13 -.320E-13   0.108E-18 0.108E-18 0.000E+00   0.647E-07 -.647E-07 0.106E-10
   -.178E-04 0.178E-04 0.158E-07   -.160E-13 -.711E-14 -.178E-13   0.000E+00 -.108E-18 0.000E+00   -.647E-07 0.647E-07 -.106E-10
   0.111E-14 -.718E-13 0.106E-12   -.142E-13 0.675E-13 -.428E-13   0.000E+00 -.529E-22 -.106E-21   -.778E-14 0.516E-13 0.450E-13
   -.118E-11 -.173E-11 0.427E-11   0.284E-13 -.320E-13 -.420E-13   0.000E+00 0.106E-21 0.000E+00   -.973E-13 -.195E-14 -.920E-14
   0.324E+02 -.576E-05 -.349E-05   -.327E+02 -.115E-13 0.157E-13   0.313E+00 0.347E-17 0.000E+00   0.417E-04 -.121E-07 0.221E-07
   -.324E+02 0.576E-05 0.349E-05   0.327E+02 -.711E-14 0.909E-14   -.313E+00 -.867E-18 0.000E+00   -.417E-04 0.121E-07 -.221E-07
   -.105E-06 0.246E-06 -.569E-07   -.100E-13 0.178E-14 0.405E-13   0.000E+00 -.108E-18 0.000E+00   0.378E-08 -.378E-08 -.214E-13
   0.105E-06 -.246E-06 0.569E-07   0.354E-14 -.266E-14 0.432E-13   0.000E+00 0.108E-18 0.000E+00   -.378E-08 0.378E-08 -.269E-13
   0.582E-05 -.324E+02 0.410E-05   -.211E-13 0.327E+02 -.873E-14   -.173E-17 -.313E+00 0.173E-17   0.121E-07 -.417E-04 -.221E-07
   -.582E-05 0.324E+02 -.410E-05   -.158E-13 -.327E+02 0.383E-13   0.173E-17 0.313E+00 0.347E-17   -.121E-07 0.417E-04 0.221E-07
   -.286E-11 -.587E-11 0.319E-11   0.639E-14 0.711E-14 0.359E-14   -.555E-16 0.555E-16 0.520E-17   -.973E-13 0.529E-13 0.136E-13

 POSITION                                       TOTAL-FORCE (eV/Angst)
      8.68624      8.68624     -8.99929        -0.000000      0.000000      0.000000
      2.89541      2.89541     -2.99976        -0.000000      0.000000     -0.000000
      0.00000      0.00000     -0.00000        -0.000000      0.000000      0.000000
      5.79083      5.79083     -5.99953        -0.000000      0.000000      0.000000
      5.07372      2.89541     -5.99953        -0.007826     -0.000000      0.000000
      6.50793      8.68624     -5.99953         0.007826      0.000000      0.000000
      5.79083      5.79083     -8.99929        -0.000000      0.000000     -0.000000
      5.79083      5.79083     -2.99976        -0.000000     -0.000000     -0.000000
      2.89541      6.50793     -5.99953        -0.000000      0.007826      0.000000
      8.68624      5.07372     -5.99953        -0.000000     -0.007826      0.000000
    total drift:                               -0.000000     -0.000000      0.000000

  FREE ENERGIE OF THE ION-ELECTRON SYSTEM (eV)
  free  energy   TOTEN  =      -357.43115263 eV

  energy  without entropy=     -357.43115263  energy(sigma->0) =     -357.43115263

 stress matrix after NEB project (eV)
     -0.41357      0.00000     -0.00000
      0.00000     -0.41357      0.00000
     -0.00000      0.00000     -0.28884
  FORCES: max atom, RMS     0.007826    0.004950
  FORCE total and by dimension    0.015653    0.007826
  Stress total and by dimension    0.652305    0.413566

 total charge

# of ion       s       p       d       tot
    1        1.784   4.718   0.016   6.518
    2        1.784   4.718   0.016   6.518
    3        1.553   0.426   9.834  11.813
    4        1.553   0.426   9.834  11.813
    5        1.615   3.283   0.007   4.904
    6        1.615   3.283   0.007   4.904
    7        1.614   3.279   0.006   4.899
    8        1.614   3.279   0.006   4.899
    9        1.615   3.289   0.007   4.910
   10        1.615   3.289   0.007   4.910
tot         16.361  29.991  19.739  66.090