 vasp.5.4.4.18Apr17-6-g9f103f2a35 (build Jun 29 2021 12:58:12) complex

 INCAR:
 POTCAR:    PAW_PBE Cs_sv 08Apr2002
 POTCAR:    PAW_PBE Pb_d 06Sep2000
 POTCAR:    PAW_PBE Br 06Sep2000
 POTCAR:    PAW_PBE Cs_sv 08Apr2002
   VRHFIN =Cs: 5s5p6s

   TITEL  = PAW_PBE Cs_sv 08Apr2002
   POMASS =  132.900; ZVAL   =    9.000    mass and valenz
   ENMAX  =  220.318; ENMIN  =  165.238 eV

   TITEL  = PAW_PBE Pb_d 06Sep2000
   POMASS =  207.200; ZVAL   =   14.000    mass and valenz
   ENMAX  =  237.835; ENMIN  =  178.376 eV

   TITEL  = PAW_PBE Br 06Sep2000
   POMASS =   79.904; ZVAL   =    7.000    mass and valenz
   ENMAX  =  216.285; ENMIN  =  162.214 eV

 Optimization of the real space projectors (new method)

 maximal supplied QI-value         = 15.12
 optimisation between [QCUT,QGAM] = [  8.77, 17.69] = [ 21.53, 87.61] Ry
 Optimized for a Real-space Cutoff    1.85 Angstroem

   l    n(q)    QCUT    max X(q) W(low)/X(q) W(high)/X(q)  e(spline)
   0     10     8.768    25.322    0.81E-04    0.51E-04    0.48E-06
   0     10     8.768    99.187    0.78E-04    0.50E-04    0.47E-06
   1      9     8.768    11.761    0.21E-03    0.20E-03    0.37E-06
   1      9     8.768     8.275    0.24E-03    0.22E-03    0.41E-06
   2      9     8.768     3.829    0.23E-04    0.15E-03    0.18E-06
 Optimization of the real space projectors (new method)

[...]

   l    n(q)    QCUT    max X(q) W(low)/X(q) W(high)/X(q)  e(spline)
   2      7     8.768     3.846    0.48E-04    0.11E-03    0.11E-06
   2      7     8.768     8.593    0.20E-03    0.22E-04    0.24E-06
   0      8     8.768    20.082    0.68E-04    0.88E-04    0.41E-07
   0      8     8.768     8.597    0.89E-04    0.13E-03    0.59E-07
   1      8     8.768    33.223    0.15E-03    0.53E-04    0.87E-07
   1      8     8.768    15.899    0.14E-03    0.44E-04    0.78E-07
 Optimization of the real space projectors (new method)

 maximal supplied QI-value         = 17.95
 optimisation between [QCUT,QGAM] = [  8.80, 17.59] = [ 21.67, 86.68] Ry
 Optimized for a Real-space Cutoff    1.59 Angstroem

   l    n(q)    QCUT    max X(q) W(low)/X(q) W(high)/X(q)  e(spline)
   0      8     8.797   175.082    0.82E-04    0.14E-03    0.89E-07
   0      8     8.797   174.004    0.79E-04    0.14E-03    0.86E-07
   1      8     8.797    54.315    0.16E-03    0.14E-04    0.30E-06
   1      8     8.797    42.441    0.16E-03    0.14E-04    0.30E-06
   2      7     8.797     3.596    0.92E-04    0.15E-03    0.85E-07
  PAW_PBE Cs_sv 08Apr2002               :
  PAW_PBE Pb_d 06Sep2000                :
  PAW_PBE Br 06Sep2000                  :

 POSCAR: Cs4 Pb4 Br12
  positions in direct lattice
  velocities in cartesian coordinates

 METAGGA = SCAN     LMAXTAU =  6    LMIXTAU =  F

 VTST: version 3.2, (02/03/18)

 CHAIN: initializing optimizer

 OPT: Using VASP Conjugate-Gradient optimizer
 CHAIN: Read ICHAIN            0

 POSCAR: Cs4 Pb4 Br12
  positions in direct lattice
  velocities in cartesian coordinates

 ion  position               nearest neighbor table
   1  0.075  0.250  0.469-
   2  0.425  0.750  0.969-
   3  0.575  0.250  0.031-
   4  0.925  0.750  0.531-
   5  0.000  0.000  0.000-  10 3.00  11 3.00  15 3.02  18 3.02  17 3.04  16 3.04
   6  0.500  0.000  0.500-   9 3.00  12 3.00  16 3.02  17 3.02  18 3.04  15 3.04
   7  0.500  0.500  0.500-   9 3.00  12 3.00  19 3.02  13 3.02  14 3.04  20 3.04
   8  0.000  0.500  0.000-  10 3.00  11 3.00  20 3.02  14 3.02  19 3.04  13 3.04
   9  0.511  0.750  0.438-   6 3.00   7 3.00
  10  0.989  0.250  0.938-   5 3.00   8 3.00
  11  0.011  0.750  0.062-   5 3.00   8 3.00
  12  0.489  0.250  0.562-   6 3.00   7 3.00
  13  0.301  0.466  0.187-   7 3.02   8 3.04
  14  0.199  0.534  0.687-   8 3.02   7 3.04
  15  0.801  0.034  0.313-   5 3.02   6 3.04
  16  0.699  0.966  0.813-   6 3.02   5 3.04
  17  0.301  0.034  0.187-   6 3.02   5 3.04
  18  0.199  0.966  0.687-   5 3.02   6 3.04
  19  0.699  0.534  0.813-   7 3.02   8 3.04
  20  0.801  0.466  0.313-   8 3.02   7 3.04

  LATTYP: Found a simple orthorhombic cell.
 ALAT       =     7.7592956389
 B/A-ratio  =     1.1285584039
 C/A-ratio  =     1.5235204860

  Lattice vectors:

 A1 = (   0.0000000000,   0.0000000000,   7.7592956389)
 A2 = (  -8.7568183018,   0.0000000000,   0.0000000000)
 A3 = (   0.0000000000, -11.8214458625,   0.0000000000)

Analysis of symmetry for initial positions (statically):
 Subroutine PRICEL returns:
 Original cell was already a primitive cell.

 Routine SETGRP: Setting up the symmetry group for a
 simple orthorhombic supercell.

 Subroutine GETGRP returns: Found  8 space group operations
 (whereof  2 operations were pure point group operations)
 out of a pool of  8 trial point group operations.

The static configuration has the point symmetry S_2 .
 The point group associated with its full space group is D_2h.

Analysis of symmetry for dynamics (positions and initial velocities):
 Subroutine PRICEL returns:
 Original cell was already a primitive cell.

 Routine SETGRP: Setting up the symmetry group for a
 simple orthorhombic supercell.

 Subroutine GETGRP returns: Found  8 space group operations
 (whereof  2 operations were pure point group operations)
 out of a pool of  8 trial point group operations.

The dynamic configuration has the point symmetry S_2 .
 The point group associated with its full space group is D_2h.

 Subroutine INISYM returns: Found  8 space group operations
 (whereof  2 operations are pure point group operations),
 and found     1 'primitive' translations

 KPOINTS: 1x1x1

Automatic generation of k-mesh.
Space group operators:
 irot       det(A)        alpha          n_x          n_y          n_z        tau_x        tau_y        tau_z
    1     1.000000     0.000000     1.000000     0.000000     0.000000     0.000000     0.000000     0.000000
    2    -1.000000     0.000000     1.000000     0.000000     0.000000     0.000000     0.000000     0.000000
    3     1.000000   180.000000     0.000000     1.000000     0.000000     0.000000    -0.500000     0.000000
    4    -1.000000   180.000000     0.000000     1.000000     0.000000     0.000000    -0.500000     0.000000
    5     1.000000   180.000000     1.000000     0.000000     0.000000    -0.500000    -0.500000     0.500000
    6    -1.000000   180.000000     1.000000     0.000000     0.000000    -0.500000    -0.500000     0.500000
    7     1.000000   180.000000     0.000000     0.000000     1.000000    -0.500000     0.000000     0.500000
    8    -1.000000   180.000000     0.000000     0.000000     1.000000    -0.500000     0.000000     0.500000

 Subroutine IBZKPT returns following result:

 Found      8 irreducible k-points:

 Following reciprocal coordinates:
            Coordinates               Weight
  0.000000  0.000000  0.000000      1.000000
  0.333333  0.000000  0.000000      2.000000
  0.000000  0.500000  0.000000      1.000000
  0.333333  0.500000  0.000000      2.000000
  0.000000  0.000000  0.333333      2.000000
  0.333333  0.000000  0.333333      4.000000
  0.000000  0.500000  0.333333      2.000000
  0.333333  0.500000  0.333333      4.000000

 Following cartesian coordinates:
            Coordinates               Weight
  0.000000  0.000000  0.000000      1.000000
  0.038066  0.000000  0.000000      2.000000
  0.000000  0.042296  0.000000      1.000000
  0.038066  0.042296  0.000000      2.000000
  0.000000  0.000000  0.042959      2.000000
  0.038066  0.000000  0.042959      4.000000
  0.000000  0.042296  0.042959      2.000000
  0.038066  0.042296  0.042959      4.000000

 SYSTEM =  CsPbBr3 cubic bulk
 POSCAR =  Cs4 Pb4 Br12

 Startparameter for this run:
   NWRITE =      2    write-flag & timer
   PREC   = accura    normal or accurate (medium, high low for compatibility)
   ISTART =      0    job   : 0-new  1-cont  2-samecut
   ICHARG =      2    charge: 1-file 2-atom 10-const
   ISPIN  =      1    spin polarized calculation?
   LNONCOLLINEAR =      F non collinear calculations
   LSORBIT =      F    spin-orbit coupling
   INIWAV =      1    electr: 0-lowe 1-rand  2-diag
   LASPH  =      T    aspherical Exc in radial PAW
   METAGGA=      F    non-selfconsistent MetaGGA calc.

 Electronic Relaxation 1
   ENCUT  =  300.0 eV  22.05 Ry    4.70 a.u.  12.37 16.70 10.96*2*pi/ulx,y,z
   ENINI  =  300.0     initial cutoff
   ENAUG  =  503.9 eV  augmentation charge cutoff
   NELM   =    200;   NELMIN=  2; NELMDL= -5     # of ELM steps
   EDIFF  = 0.1E-05   stopping-criterion for ELM
   LREAL  =      T    real-space projection
   NLSPLINE    = F    spline interpolate recip. space projectors
   LCOMPAT=      F    compatible to vasp.4.4
   GGA_COMPAT  = T    GGA compatible to vasp.4.4-vasp.4.6
   LMAXPAW     = -100 max onsite density
   LMAXMIX     =    2 max onsite mixed and CHGCAR
   VOSKOWN=      0    Vosko Wilk Nusair interpolation
   ROPT   =   -0.00025  -0.00025  -0.00025
 Ionic relaxation
   EDIFFG = -.1E-01   stopping-criterion for IOM
   NSW    =      0    number of steps for IOM
   NBLOCK =      1;   KBLOCK =      1    inner block; outer block
   IBRION =     -1    ionic relax: 0-MD 1-quasi-New 2-CG
   NFREE  =      1    steps in history (QN), initial steepest desc. (CG)
   ISIF   =      3    stress and relaxation
   IWAVPR =     10    prediction:  0-non 1-charg 2-wave 3-comb
   ISYM   =      2    0-nonsym 1-usesym 2-fastsym
   LCORR  =      T    Harris-Foulkes like correction to forces

   POTIM  = 0.5000    time-step for ionic-motion
   TEIN   =    0.0    initial temperature
   TEBEG  =    0.0;   TEEND  =   0.0 temperature during run
   SMASS  =  -3.00    Nose mass-parameter (am)
   estimated Nose-frequenzy (Omega)   =  0.10E-29 period in steps =****** mass=  -0.175E-26a.u.
   SCALEE = 1.0000    scale energy and forces
   NPACO  =    256;   APACO  = 16.0  distance and # of slots for P.C.
   PSTRESS=    0.0 pullay stress

  Mass of Ions in am
   POMASS = 132.90207.20 79.90
  Ionic Valenz
   ZVAL   =   9.00 14.00  7.00
  Atomic Wigner-Seitz radii
  virtual crystal weights
   VCA    =   1.00  1.00  1.00
   NELECT =     176.0000    total number of electrons
   NUPDOWN=      -1.0000    fix difference up-down

 DOS related values:
   EMIN   =  10.00;   EMAX   =-10.00  energy-range for DOS
   EFERMI =   0.00
   ISMEAR =     0;   SIGMA  =   0.01  broadening in eV -4-tet -1-fermi 0-gaus

 Electronic relaxation 2 (details)
   IALGO  =     38    algorithm
   LDIAG  =      T    sub-space diagonalisation (order eigenvalues)
   LSUBROT=      F    optimize rotation matrix (better conditioning)
   TURBO    =      0    0=normal 1=particle mesh
   IRESTART =      0    0=no restart 2=restart with 2 vectors
   NREBOOT  =      0    no. of reboots
   NMIN     =      0    reboot dimension
   EREF     =   0.00    reference energy to select bands
   IMIX   =      4    mixing-type and parameters
     AMIX     =   0.40;   BMIX     =  1.00
     AMIX_MAG =   1.60;   BMIX_MAG =  1.00
     AMIN     =   0.10
     WC   =   100.;   INIMIX=   1;  MIXPRE=   1;  MAXMIX= -45

 Intra band minimization:
   WEIMIN = 0.0000     energy-eigenvalue tresh-hold
   EBREAK =  0.22E-08  absolut break condition
   DEPER  =   0.30     relativ break condition

   TIME   =   0.40     timestep for ELM

[...]
 total energy-change (2. order) :-0.1235952E+04  (-0.1187058E+04)
 number of electron     176.0000000 magnetization
 augmentation part      176.0000000 magnetization

[...]

 Broyden mixing:
  rms(total) = 0.69827E+00    rms(broyden)= 0.69801E+00
  rms(prec ) = 0.97597E+00
  weight for this iteration     100.00

[...]

 eigenvalues of (default mixing * dielectric matrix)
  average eigenvalue GAMMA=   1.1529
  1.1529

[...]

 eigenvalue-minimisations  :  1224
 total energy-change (2. order) :-0.1968985E-05  (-0.5056824E-07)
 number of electron     176.0000000 magnetization
 augmentation part       -2.3100406 magnetization

[...]

 Broyden mixing:
  rms(total) = 0.29673E-04    rms(broyden)= 0.29131E-04
  rms(prec ) = 0.31037E-04
  weight for this iteration     100.00

 eigenvalues of (default mixing * dielectric matrix)
  average eigenvalue GAMMA=   1.6036
  3.0934  3.0934  2.5655  1.9833  1.9833  1.1842  1.1842  0.9910  0.9910  0.9377
  0.9377  0.2983

[...]

--------------------------------------- Iteration      1(  18)  ---------------------------------------

 eigenvalue-minimisations  :  1112
 total energy-change (2. order) : 0.1285655E-06  (-0.9125796E-08)
 number of electron     176.0000000 magnetization
 augmentation part       -2.3100649 magnetization

 Free energy of the ion-electron system (eV)
  alpha Z        PSCENC =       449.19824083
  Ewald energy   TEWEN  =     -9229.90620338
  -Hartree energ DENC   =     -3663.21832123
  -exchange      EXHF   =         0.00000000
  -V(xc)+E(xc)   XCENC  =       481.20429282
  PAW double counting   =     11514.75036782   -12050.50020778
  entropy T*S    EENTRO =        -0.00000000
  eigenvalues    EBANDS =     -1506.67222495
  atomic energy  EATOM  =     13290.28009929
  Solvation  Ediel_sol  =         0.00000000
  free energy    TOTEN  =      -714.86395658 eV

  energy without entropy =     -714.86395658  energy(sigma->0) =     -714.86395658

 average (electrostatic) potential at core
  the test charge radii are     1.1312  1.1541  1.0178
  (the norm of the test charge is              1.0000)
       1 -55.2246       2 -55.2246       3 -55.2246       4 -55.2246       5-101.7162
       6-101.7162       7-101.7162       8-101.7162       9 -69.0201      10 -69.0201
      11 -69.0201      12 -69.0201      13 -68.9580      14 -68.9580      15 -68.9580
      16 -68.9580      17 -68.9580      18 -68.9580      19 -68.9580      20 -68.9580

 E-fermi :   0.4592     XC(G=0):  -8.0756     alpha+bet : -7.0472

 k-point     1 :       0.0000    0.0000    0.0000
  band No.  band energies     occupation
      1     -20.7570      2.00000
      2     -20.7553      2.00000
      3     -20.7527      2.00000
      4     -20.7516      2.00000
      5     -16.5256      2.00000
      6     -16.5040      2.00000
      7     -16.5032      2.00000
      8     -16.5028      2.00000
      9     -16.4686      2.00000
     10     -16.4421      2.00000
     11     -16.4281      2.00000
     12     -16.4280      2.00000
     13     -16.3836      2.00000
     14     -16.3828      2.00000
     15     -16.3824      2.00000
     16     -16.3821      2.00000
     17     -16.3688      2.00000
     18     -16.3687      2.00000
     19     -16.3684      2.00000
     20     -16.3683      2.00000
     21     -16.3603      2.00000
     22     -16.3595      2.00000
     23     -16.3595      2.00000
     24     -16.3587      2.00000
     25     -14.3182      2.00000
     26     -14.1259      2.00000
     27     -14.0546      2.00000
     28     -14.0525      2.00000
     29     -14.0045      2.00000
     30     -13.9955      2.00000
     31     -13.9930      2.00000
     32     -13.9262      2.00000
     33     -13.9200      2.00000
     34     -13.7629      2.00000
     35     -13.7242      2.00000
     36     -13.7204      2.00000
     37      -8.1617      2.00000
     38      -7.6587      2.00000
     39      -7.2342      2.00000
     40      -7.2171      2.00000
     41      -7.1915      2.00000
     42      -7.1851      2.00000
     43      -7.1803      2.00000
     44      -7.1794      2.00000
     45      -7.1687      2.00000
     46      -7.1512      2.00000
     47      -7.1434      2.00000
     48      -7.1433      2.00000
     49      -7.1390      2.00000
     50      -7.1264      2.00000
     51      -7.0989      2.00000
     52      -6.6027      2.00000
     53      -3.3021      2.00000
     54      -3.2870      2.00000
     55      -3.1732      2.00000
     56      -3.1317      2.00000
     57      -3.1227      2.00000
     58      -2.9937      2.00000
     59      -2.1277      2.00000
     60      -1.8895      2.00000
[...]
     98       5.8957      0.00000
     99       5.9198      0.00000
    100       6.0579      0.00000
    101       6.1317      0.00000
    102       6.1406      0.00000
    103       6.2401      0.00000
    104       6.4162      0.00000
    105       6.4445      0.00000
    106       6.4681      0.00000
    107       6.6205      0.00000
    108       6.8047      0.00000
    109       6.9484      0.00000
    110       7.1357      0.00000
    111       7.1420      0.00000
    112       7.1571      0.00000

[...]

 k-point     8 :       0.3333    0.5000    0.3333
  band No.  band energies     occupation
      1     -20.7547      2.00000
      2     -20.7547      2.00000
      3     -20.7534      2.00000
      4     -20.7534      2.00000
      5     -16.4989      2.00000
      6     -16.4989      2.00000
      7     -16.4896      2.00000
      8     -16.4896      2.00000
      9     -16.4654      2.00000
     10     -16.4654      2.00000
     11     -16.4500      2.00000
     12     -16.4500      2.00000
     13     -16.3828      2.00000
     14     -16.3828      2.00000
     15     -16.3827      2.00000
     16     -16.3827      2.00000
     17     -16.3686      2.00000
     18     -16.3686      2.00000
     19     -16.3685      2.00000
     20     -16.3685      2.00000
     21     -16.3596      2.00000
     22     -16.3596      2.00000
     23     -16.3594      2.00000
     24     -16.3594      2.00000
     25     -14.1798      2.00000
     26     -14.1798      2.00000
     27     -14.1100      2.00000
     28     -14.1100      2.00000
     29     -13.9747      2.00000
     30     -13.9747      2.00000
     31     -13.9168      2.00000
     32     -13.9168      2.00000
     33     -13.8337      2.00000
     34     -13.8337      2.00000
     35     -13.7980      2.00000
     36     -13.7980      2.00000
     37      -7.6056      2.00000
     38      -7.6056      2.00000
     39      -7.3747      2.00000
     40      -7.3747      2.00000
     41      -7.1814      2.00000
     42      -7.1814      2.00000
     43      -7.1622      2.00000
     44      -7.1622      2.00000
     45      -7.1491      2.00000
     46      -7.1491      2.00000
     47      -7.1447      2.00000
     48      -7.1447      2.00000
     49      -7.1307      2.00000
     50      -7.1307      2.00000
     51      -7.1130      2.00000
     52      -7.1130      2.00000
     53      -3.0730      2.00000
     54      -3.0730      2.00000
     55      -2.7415      2.00000
     56      -2.7415      2.00000
     57      -2.4941      2.00000
     58      -2.4941      2.00000
     59      -2.3895      2.00000
     60      -2.3895      2.00000
[...]
     98       4.9747      0.00000
     99       5.6278      0.00000
    100       5.6278      0.00000
    101       6.3346      0.00000
    102       6.3346      0.00000
    103       6.4293      0.00000
    104       6.4293      0.00000
    105       6.6198      0.00000
    106       6.6198      0.00000
    107       6.8032      0.00000
    108       6.8032      0.00000
    109       6.8666      0.00000
    110       6.8666      0.00000
    111       7.0449      0.00000
    112       7.0449      0.00000

 soft charge-density along one line, spin component           1
         0         1         2         3         4         5         6         7         8         9
 total charge-density along one line

------------------------ aborting loop because EDIFF is reached ----------------------------------------

 total charge

# of ion       s       p       d       tot
    1        1.786   4.719   0.019   6.523
    2        1.786   4.719   0.019   6.523
    3        1.786   4.719   0.019   6.523
    4        1.786   4.719   0.019   6.523
    5        1.552   0.414   9.832  11.798
    6        1.552   0.413   9.832  11.798
    7        1.552   0.413   9.832  11.798
    8        1.552   0.414   9.832  11.798
    9        1.614   3.286   0.006   4.906
   10        1.614   3.286   0.006   4.906
   11        1.614   3.286   0.006   4.906
   12        1.614   3.286   0.006   4.906
   13        1.615   3.270   0.006   4.890
   14        1.613   3.291   0.005   4.910
   15        1.613   3.291   0.005   4.910
   16        1.615   3.270   0.006   4.890
   17        1.615   3.270   0.006   4.890
   18        1.613   3.291   0.005   4.910
   19        1.615   3.270   0.006   4.890
   20        1.613   3.291   0.005   4.910
tot         32.720  59.916  39.473 132.109

  FORCE on cell =-STRESS in cart. coord.  units (eV):
  Direction    XX          YY          ZZ          XY          YZ          ZX
  Alpha Z   449.19824   449.19824   449.19824
  Ewald   -3015.51702 -2977.55168 -3236.86461    -0.00000    -0.00000    -0.00000
  Hartree  1270.49434  1269.45768  1123.26514     0.00000    -0.00000    -0.00000
  E(xc)    -738.73807  -738.68280  -738.75620    -0.00000    -0.00000    -0.02986
  Local   -1521.25878 -1557.66387 -1155.93287     0.00000     0.00000     0.00000
  n-local   899.03399   899.44724   897.54322     0.00000     0.00000     0.03224
  augment   407.28109   406.30153   405.72888    -0.00000    -0.00004    -0.00002
  Kinetic  2245.78171  2248.33831  2255.20095    -0.00000    -0.00001    -1.47980
  Fock        0.00000     0.00000     0.00000     0.00000     0.00000     0.00000
  Total      -3.72449    -1.15535    -0.61725     0.00000     0.00000     0.00000
  in kB      -7.42914    -2.30454    -1.23122     0.00000     0.00000     0.00000

 VOLUME and BASIS-vectors are now :
  energy-cutoff  :      300.00
  volume of cell :      803.23
      direct lattice vectors                 reciprocal lattice vectors
     8.756818302  0.000000000  0.000000000     0.114196728  0.000000000  0.000000000
     0.000000000 11.821445862  0.000000000     0.000000000  0.084592021  0.000000000
     0.000000000  0.000000000  7.759295639     0.000000000  0.000000000  0.128877677

  length of vectors
     8.756818302 11.821445862  7.759295639     0.114196728  0.084592021  0.128877677

 FORCES acting on ions
    electron-ion (+dipol)            ewald-force                    non-local-force                 convergence-correction
   0.284E+02 -.748E-13 -.190E+02   -.282E+02 -.286E-11 0.191E+02   -.127E+00 0.265E-22 -.896E-01   0.448E-04 0.357E-13 -.566E-04
   -.284E+02 -.632E-12 -.190E+02   0.282E+02 -.454E-11 0.191E+02   0.127E+00 0.132E-22 -.896E-01   -.448E-04 -.496E-14 -.566E-04
   0.284E+02 -.216E-11 0.190E+02   -.282E+02 -.286E-11 -.191E+02   -.127E+00 -.132E-22 0.896E-01   0.448E-04 0.450E-13 0.566E-04
   -.284E+02 0.793E-13 0.190E+02   0.282E+02 -.453E-11 -.191E+02   0.127E+00 -.265E-22 0.896E-01   -.448E-04 -.225E-14 0.566E-04
   0.110E-11 -.170E-11 0.343E-10   0.263E-11 -.877E-11 -.841E-11   0.000E+00 0.000E+00 -.229E-23   0.207E-12 0.508E-12 0.114E-13
   0.197E-11 0.474E-13 0.392E-10   0.117E-10 -.488E-11 -.702E-11   0.000E+00 0.000E+00 0.206E-23   0.134E-12 0.491E-12 0.218E-13
   -.340E-12 -.366E-11 0.353E-10   0.125E-10 0.152E-10 -.114E-10   0.000E+00 0.000E+00 0.109E-22   0.104E-12 -.582E-12 0.255E-13
   0.144E-11 0.398E-11 0.346E-10   0.341E-11 0.192E-10 -.403E-11   0.000E+00 0.000E+00 -.331E-23   0.234E-12 -.632E-12 -.740E-14
   0.778E+01 0.102E-12 0.387E+02   -.782E+01 -.347E-11 -.390E+02   0.377E-01 0.000E+00 0.236E+00   0.954E-05 -.152E-13 0.405E-04
   -.778E+01 -.244E-11 0.387E+02   0.782E+01 -.924E-12 -.390E+02   -.377E-01 0.000E+00 0.236E+00   -.954E-05 -.205E-13 0.405E-04
   0.778E+01 -.436E-12 -.387E+02   -.782E+01 -.340E-11 0.390E+02   0.377E-01 0.000E+00 -.236E+00   0.954E-05 0.337E-14 -.405E-04
   -.778E+01 0.351E-11 -.387E+02   0.782E+01 -.853E-12 0.390E+02   -.377E-01 0.000E+00 -.236E+00   -.954E-05 -.104E-13 -.405E-04
   -.207E+02 0.162E+02 0.306E+02   0.209E+02 -.164E+02 -.309E+02   -.192E+00 0.135E+00 0.273E+00   0.121E-04 -.277E-04 -.683E-05
   0.207E+02 -.162E+02 0.306E+02   -.209E+02 0.164E+02 -.309E+02   0.192E+00 -.135E+00 0.273E+00   -.121E-04 0.277E-04 -.683E-05
   -.207E+02 -.162E+02 -.306E+02   0.209E+02 0.164E+02 0.309E+02   -.192E+00 -.135E+00 -.273E+00   0.121E-04 0.277E-04 0.683E-05
   0.207E+02 0.162E+02 -.306E+02   -.209E+02 -.164E+02 0.309E+02   0.192E+00 0.135E+00 -.273E+00   -.121E-04 -.277E-04 0.683E-05
   -.207E+02 -.162E+02 0.306E+02   0.209E+02 0.164E+02 -.309E+02   -.192E+00 -.135E+00 0.273E+00   0.121E-04 0.277E-04 -.683E-05
   0.207E+02 0.162E+02 0.306E+02   -.209E+02 -.164E+02 -.309E+02   0.192E+00 0.135E+00 0.273E+00   -.121E-04 -.277E-04 -.683E-05
   0.207E+02 -.162E+02 -.306E+02   -.209E+02 0.164E+02 0.309E+02   0.192E+00 -.135E+00 -.273E+00   -.121E-04 0.277E-04 0.683E-05
   -.207E+02 0.162E+02 -.306E+02   0.209E+02 -.164E+02 0.309E+02   -.192E+00 0.135E+00 -.273E+00   0.121E-04 -.277E-04 0.683E-05
   -.139E-09 0.126E-09 0.558E-09   -.284E-13 0.711E-14 -.284E-13   0.000E+00 0.000E+00 -.111E-15   0.716E-12 -.265E-12 0.123E-12

 POSITION                                       TOTAL-FORCE (eV/Angst)
      0.65583      2.95536      3.63709        -0.001312      0.000000      0.001271
      3.72258      8.86608      7.51673         0.001312      0.000000      0.001271
      5.03424      2.95536      0.24256        -0.001312      0.000000     -0.001271
      8.10099      8.86608      4.12221         0.001312      0.000000     -0.001271
      0.00000      0.00000      0.00000        -0.000000      0.000000     -0.000000
      4.37841      0.00000      3.87965        -0.000000      0.000000     -0.000000
      4.37841      5.91072      3.87965        -0.000000      0.000000     -0.000000
      0.00000      5.91072      0.00000        -0.000000      0.000000     -0.000000
      4.47827      8.86608      3.39664        -0.003009      0.000000     -0.008384
      8.65696      2.95536      7.27629         0.003009      0.000000     -0.008384
      0.09986      8.86608      0.48301        -0.003009      0.000000      0.008384
      4.27855      2.95536      4.36266         0.003009      0.000000      0.008384
      2.63471      5.50977      1.45261        -0.009357     -0.012604     -0.001139
      1.74370      6.31167      5.33226         0.009357      0.012604     -0.001139
      7.01312      0.40095      2.42704        -0.009357      0.012604      0.001139
      6.12211     11.42049      6.30669         0.009357     -0.012604      0.001139
      2.63471      0.40095      1.45261        -0.009357      0.012604     -0.001139
      1.74370     11.42049      5.33226         0.009357     -0.012604     -0.001139
      6.12211      6.31167      6.30669         0.009357      0.012604      0.001139
      7.01312      5.50977      2.42704        -0.009357     -0.012604      0.001139
    total drift:                               -0.000000      0.000000      0.000000

  FREE ENERGIE OF THE ION-ELECTRON SYSTEM (eV)
  free  energy   TOTEN  =      -714.86395658 eV

  energy  without entropy=     -714.86395658  energy(sigma->0) =     -714.86395658

 stress matrix after NEB project (eV)
     -3.72449      0.00000      0.00000
      0.00000     -1.15535      0.00000
     -0.00000      0.00000     -0.61725
  FORCES: max atom, RMS     0.015739    0.010753
  FORCE total and by dimension    0.048088    0.012604
  Stress total and by dimension    3.948122    3.724492

 total charge

# of ion       s       p       d       tot
    1        1.786   4.719   0.019   6.523
    2        1.786   4.719   0.019   6.523
    3        1.786   4.719   0.019   6.523
    4        1.786   4.719   0.019   6.523
    5        1.552   0.414   9.832  11.798
    6        1.552   0.413   9.832  11.798
    7        1.552   0.413   9.832  11.798
    8        1.552   0.414   9.832  11.798
    9        1.614   3.286   0.006   4.906
   10        1.614   3.286   0.006   4.906
   11        1.614   3.286   0.006   4.906
   12        1.614   3.286   0.006   4.906
   13        1.615   3.270   0.006   4.890
   14        1.613   3.291   0.005   4.910
   15        1.613   3.291   0.005   4.910
   16        1.615   3.270   0.006   4.890
   17        1.615   3.270   0.006   4.890
   18        1.613   3.291   0.005   4.910
   19        1.615   3.270   0.006   4.890
   20        1.613   3.291   0.005   4.910
tot         32.720  59.916  39.473 132.109