 vasp.5.4.4.18Apr17-6-g9f103f2a35 (build Jun 22 2020 09:27:21) complex

 INCAR:
 POTCAR:    PAW_PBE Cs_sv 08Apr2002
 POTCAR:    PAW_PBE Pb_d 06Sep2000
 POTCAR:    PAW_PBE Br 06Sep2000
 POTCAR:    PAW_PBE Cs_sv 08Apr2002
   VRHFIN =Cs: 5s5p6s

   TITEL  = PAW_PBE Cs_sv 08Apr2002
   POMASS =  132.900; ZVAL   =    9.000    mass and valenz
   ENMAX  =  220.318; ENMIN  =  165.238 eV

 POTCAR:    PAW_PBE Pb_d 06Sep2000
   VRHFIN =Pb:

   TITEL  = PAW_PBE Pb_d 06Sep2000
   POMASS =  207.200; ZVAL   =   14.000    mass and valenz
   ENMAX  =  237.835; ENMIN  =  178.376 eV

 POTCAR:    PAW_PBE Br 06Sep2000
   VRHFIN =Br: s2p5

   TITEL  = PAW_PBE Br 06Sep2000
   POMASS =   79.904; ZVAL   =    7.000    mass and valenz
   ENMAX  =  216.285; ENMIN  =  162.214 eV

 Optimization of the real space projectors (new method)

 maximal supplied QI-value         = 15.12
 optimisation between [QCUT,QGAM] = [  8.77, 17.69] = [ 21.53, 87.61] Ry
 Optimized for a Real-space Cutoff    1.85 Angstroem

   l    n(q)    QCUT    max X(q) W(low)/X(q) W(high)/X(q)  e(spline)
   0     10     8.768    25.322    0.81E-04    0.51E-04    0.48E-06
   0     10     8.768    99.187    0.78E-04    0.50E-04    0.47E-06
   1      9     8.768    11.761    0.21E-03    0.20E-03    0.37E-06
   1      9     8.768     8.275    0.24E-03    0.22E-03    0.41E-06
   2      9     8.768     3.829    0.23E-04    0.15E-03    0.18E-06
 Optimization of the real space projectors (new method)

[...]

   l    n(q)    QCUT    max X(q) W(low)/X(q) W(high)/X(q)  e(spline)
   2      7     8.768     3.846    0.48E-04    0.11E-03    0.11E-06
   2      7     8.768     8.593    0.20E-03    0.22E-04    0.24E-06
   0      8     8.768    20.082    0.68E-04    0.88E-04    0.41E-07
   0      8     8.768     8.597    0.89E-04    0.13E-03    0.59E-07
   1      8     8.768    33.223    0.15E-03    0.53E-04    0.87E-07
   1      8     8.768    15.899    0.14E-03    0.44E-04    0.78E-07
 Optimization of the real space projectors (new method)

 maximal supplied QI-value         = 17.95
 optimisation between [QCUT,QGAM] = [  8.80, 17.59] = [ 21.67, 86.68] Ry
 Optimized for a Real-space Cutoff    1.59 Angstroem

   l    n(q)    QCUT    max X(q) W(low)/X(q) W(high)/X(q)  e(spline)
   0      8     8.797   175.082    0.82E-04    0.14E-03    0.89E-07
   0      8     8.797   174.004    0.79E-04    0.14E-03    0.86E-07
   1      8     8.797    54.315    0.16E-03    0.14E-04    0.30E-06
   1      8     8.797    42.441    0.16E-03    0.14E-04    0.30E-06
   2      7     8.797     3.596    0.92E-04    0.15E-03    0.85E-07
  PAW_PBE Cs_sv 08Apr2002               :
  PAW_PBE Pb_d 06Sep2000                :
  PAW_PBE Br 06Sep2000                  :

 POSCAR: Cs1 Pb1 Br3
  positions in direct lattice
  velocities in cartesian coordinates

 METAGGA = SCAN     LMAXTAU =  6    LMIXTAU =  F

 VTST: version 3.2, (02/03/18)

 CHAIN: initializing optimizer

 OPT: Using VASP Conjugate-Gradient optimizer
 CHAIN: Read ICHAIN            0

 POSCAR: Cs1 Pb1 Br3
  positions in direct lattice
  velocities in cartesian coordinates

 ion  position               nearest neighbor table
   1  0.500  0.500  0.500-
   2  0.000  0.000  0.000-   3 2.95   4 2.95   5 2.95   4 2.95   3 2.95   5 2.95
   3  0.000  0.500  0.000-   2 2.95   2 2.95
   4  0.000  0.000  0.500-   2 2.95   2 2.95
   5  0.500  0.000  0.000-   2 2.95   2 2.95

  LATTYP: Found a simple cubic cell.
 ALAT       =     5.9087411283

  Lattice vectors:

 A1 = (   5.9087411283,   0.0000000000,  -0.0000000000)
 A2 = (   0.0000000000,   5.9087411283,   0.0000000000)
 A3 = (   0.0000000000,   0.0000000000,   5.9087411283)

Analysis of symmetry for initial positions (statically):
 Subroutine PRICEL returns:
 Original cell was already a primitive cell.

 Routine SETGRP: Setting up the symmetry group for a
 simple cubic supercell.

 Subroutine GETGRP returns: Found 48 space group operations
 (whereof 48 operations were pure point group operations)
 out of a pool of 48 trial point group operations.

The static configuration has the point symmetry O_h .

Analysis of symmetry for dynamics (positions and initial velocities):
 Subroutine PRICEL returns:
 Original cell was already a primitive cell.

 Routine SETGRP: Setting up the symmetry group for a
 simple cubic supercell.

 Subroutine GETGRP returns: Found 48 space group operations
 (whereof 48 operations were pure point group operations)
 out of a pool of 48 trial point group operations.

The dynamic configuration has the point symmetry O_h .

 Subroutine INISYM returns: Found 48 space group operations
 (whereof 48 operations are pure point group operations),
 and found     1 'primitive' translations

 KPOINTS: 1x1x1

Automatic generation of k-mesh.
Space group operators:
 irot       det(A)        alpha          n_x          n_y          n_z        tau_x        tau_y        tau_z
    1     1.000000     0.000000     1.000000     0.000000     0.000000     0.000000     0.000000     0.000000
    2    -1.000000     0.000000     1.000000     0.000000     0.000000     0.000000     0.000000     0.000000
    3     1.000000   120.000000    -0.577350    -0.577350    -0.577350     0.000000     0.000000     0.000000
    4    -1.000000   120.000000    -0.577350    -0.577350    -0.577350     0.000000     0.000000     0.000000
    5     1.000000   120.000000     0.577350     0.577350     0.577350     0.000000     0.000000     0.000000
    6    -1.000000   120.000000     0.577350     0.577350     0.577350     0.000000     0.000000     0.000000
    7     1.000000    90.000000     0.000000     0.000000    -1.000000     0.000000     0.000000     0.000000
    8    -1.000000    90.000000     0.000000     0.000000    -1.000000     0.000000     0.000000     0.000000
    9     1.000000   180.000000     0.000000     0.707107     0.707107     0.000000     0.000000     0.000000
   10    -1.000000   180.000000     0.000000     0.707107     0.707107     0.000000     0.000000     0.000000
   11     1.000000    90.000000     0.000000     1.000000     0.000000     0.000000     0.000000     0.000000
   12    -1.000000    90.000000     0.000000     1.000000     0.000000     0.000000     0.000000     0.000000
   13     1.000000   180.000000     0.000000     0.000000     1.000000     0.000000     0.000000     0.000000
   14    -1.000000   180.000000     0.000000     0.000000     1.000000     0.000000     0.000000     0.000000
   15     1.000000   120.000000    -0.577350     0.577350     0.577350     0.000000     0.000000     0.000000
   16    -1.000000   120.000000    -0.577350     0.577350     0.577350     0.000000     0.000000     0.000000
   17     1.000000   120.000000    -0.577350     0.577350    -0.577350     0.000000     0.000000     0.000000
   18    -1.000000   120.000000    -0.577350     0.577350    -0.577350     0.000000     0.000000     0.000000
   19     1.000000    90.000000     0.000000     0.000000     1.000000     0.000000     0.000000     0.000000
   20    -1.000000    90.000000     0.000000     0.000000     1.000000     0.000000     0.000000     0.000000
   21     1.000000    90.000000    -1.000000     0.000000     0.000000     0.000000     0.000000     0.000000
   22    -1.000000    90.000000    -1.000000     0.000000     0.000000     0.000000     0.000000     0.000000
   23     1.000000   180.000000     0.707107     0.000000     0.707107     0.000000     0.000000     0.000000
   24    -1.000000   180.000000     0.707107     0.000000     0.707107     0.000000     0.000000     0.000000
   25     1.000000   120.000000     0.577350    -0.577350     0.577350     0.000000     0.000000     0.000000
   26    -1.000000   120.000000     0.577350    -0.577350     0.577350     0.000000     0.000000     0.000000
   27     1.000000   120.000000    -0.577350    -0.577350     0.577350     0.000000     0.000000     0.000000
   28    -1.000000   120.000000    -0.577350    -0.577350     0.577350     0.000000     0.000000     0.000000
   29     1.000000   180.000000     1.000000     0.000000     0.000000     0.000000     0.000000     0.000000
   30    -1.000000   180.000000     1.000000     0.000000     0.000000     0.000000     0.000000     0.000000
   31     1.000000    90.000000     0.000000    -1.000000     0.000000     0.000000     0.000000     0.000000
   32    -1.000000    90.000000     0.000000    -1.000000     0.000000     0.000000     0.000000     0.000000
   33     1.000000   180.000000     0.707107     0.707107     0.000000     0.000000     0.000000     0.000000
   34    -1.000000   180.000000     0.707107     0.707107     0.000000     0.000000     0.000000     0.000000
   35     1.000000    90.000000     1.000000     0.000000     0.000000     0.000000     0.000000     0.000000
   36    -1.000000    90.000000     1.000000     0.000000     0.000000     0.000000     0.000000     0.000000
   37     1.000000   120.000000     0.577350    -0.577350    -0.577350     0.000000     0.000000     0.000000
   38    -1.000000   120.000000     0.577350    -0.577350    -0.577350     0.000000     0.000000     0.000000
   39     1.000000   180.000000     0.000000     1.000000     0.000000     0.000000     0.000000     0.000000
   40    -1.000000   180.000000     0.000000     1.000000     0.000000     0.000000     0.000000     0.000000
   41     1.000000   120.000000     0.577350     0.577350    -0.577350     0.000000     0.000000     0.000000
   42    -1.000000   120.000000     0.577350     0.577350    -0.577350     0.000000     0.000000     0.000000
   43     1.000000   180.000000     0.000000    -0.707107     0.707107     0.000000     0.000000     0.000000
   44    -1.000000   180.000000     0.000000    -0.707107     0.707107     0.000000     0.000000     0.000000
   45     1.000000   180.000000     0.707107    -0.707107     0.000000     0.000000     0.000000     0.000000
   46    -1.000000   180.000000     0.707107    -0.707107     0.000000     0.000000     0.000000     0.000000
   47     1.000000   180.000000     0.707107     0.000000    -0.707107     0.000000     0.000000     0.000000
   48    -1.000000   180.000000     0.707107     0.000000    -0.707107     0.000000     0.000000     0.000000

 Subroutine IBZKPT returns following result:

 Found     10 irreducible k-points:

 Following reciprocal coordinates:
            Coordinates               Weight
  0.000000  0.000000  0.000000      1.000000
  0.250000  0.000000  0.000000      6.000000
  0.500000  0.000000  0.000000      3.000000
  0.250000  0.250000  0.000000     12.000000
  0.500000  0.250000  0.000000     12.000000
  0.500000  0.500000  0.000000      3.000000
  0.250000  0.250000  0.250000      8.000000
  0.500000  0.250000  0.250000     12.000000
  0.500000  0.500000  0.250000      6.000000
  0.500000  0.500000  0.500000      1.000000

 Following cartesian coordinates:
            Coordinates               Weight
  0.000000  0.000000  0.000000      1.000000
  0.042310  0.000000  0.000000      6.000000
  0.084620  0.000000  0.000000      3.000000
  0.042310  0.042310  0.000000     12.000000
  0.084620  0.042310  0.000000     12.000000
  0.084620  0.084620  0.000000      3.000000
  0.042310  0.042310  0.042310      8.000000
  0.084620  0.042310  0.042310     12.000000
[...]

  volume/ion in A,a.u.               =      41.26       278.43
  Fermi-wavevector in a.u.,A,eV,Ry     =   0.978132  1.848401 13.017266  0.956742
  Thomas-Fermi vector in A             =   2.108884

 Write flags
   LWAVE        =      F    write WAVECAR
   LDOWNSAMPLE  =      F    k-point downsampling of WAVECAR
   LCHARG       =      F    write CHGCAR
   LVTOT        =      F    write LOCPOT, total local potential
   LVHAR        =      T    write LOCPOT, Hartree potential only
   LELF         =      F    write electronic localiz. function (ELF)
   LORBIT       =     10    0 simple, 1 ext, 2 COOP (PROOUT), +10 PAW based schemes

 Dipole corrections
   LMONO  =      F    monopole corrections only (constant potential shift)
   LDIPOL =      F    correct potential (dipole corrections)
   IDIPOL =      0    1-x, 2-y, 3-z, 4-all directions
   EPSILON=  1.0000000 bulk dielectric constant

 Exchange correlation treatment:
   GGA     =    --    GGA type
   VOSKOWN=      0    Vosko Wilk Nusair interpolation
   LHFCALC =     F    Hartree Fock is set to
   LHFONE  =     F    Hartree Fock one center treatment
   AEXX    =    0.0000 exact exchange contribution

 Linear response parameters
   LEPSILON=     F    determine dielectric tensor
   LRPA    =     F    only Hartree local field effects (RPA)
   LNABLA  =     F    use nabla operator in PAW spheres
   LVEL    =     F    velocity operator in full k-point grid
   LINTERFAST=   F  fast interpolation
   KINTER  =     0    interpolate to denser k-point grid
   CSHIFT  =0.1000    complex shift for real part using Kramers Kronig
   OMEGAMAX=  -1.0    maximum frequency
   DEG_THRESHOLD= 0.2000000E-02 threshold for treating states as degnerate
   RTIME   =   -0.100 relaxation time in fs
  (WPLASMAI=    0.000 imaginary part of plasma frequency in eV, 0.658/RTIME)
   DFIELD  = 0.0000000 0.0000000 0.0000000 field for delta impulse in time

 Orbital magnetization related:
   ORBITALMAG=     F  switch on orbital magnetization
   LCHIMAG   =     F  perturbation theory with respect to B field
   DQ        =  0.001000  dq finite difference perturbation B field
   LLRAUG    =     F  two centre corrections for induced B field

 Static calculation
 charge density and potential will be updated during run
 non-spin polarized calculation
 Variant of blocked Davidson
 Davidson routine will perform the subspace rotation
 perform sub-space diagonalisation
    after iterative eigenvector-optimisation
 modified Broyden-mixing scheme, WC =      100.0
 initial mixing is a Kerker type mixing with AMIX =  0.4000 and BMIX =      1.0000
 Hartree-type preconditioning will be used
 using additional bands           10
 real space projection scheme for non local part
 use partial core corrections
 calculate Harris-corrections to forces   (improved forces if not selfconsistent)
 use gradient corrections
 use of overlap-Matrix (Vanderbilt PP)
 Gauss-broadening in eV      SIGMA  =   0.01

  energy-cutoff  :      300.00
  volume of cell :      206.29
      direct lattice vectors                 reciprocal lattice vectors
     5.908741128  0.000000000 -0.000000000     0.169240787  0.000000000  0.000000000
     0.000000000  5.908741128  0.000000000    -0.000000000  0.169240787  0.000000000
     0.000000000  0.000000000  5.908741128     0.000000000 -0.000000000  0.169240787

  length of vectors
     5.908741128  5.908741128  5.908741128     0.169240787  0.169240787  0.169240787

 k-points in units of 2pi/SCALE and weight: 1x1x1
   0.00000000  0.00000000  0.00000000       0.016
   0.04231020  0.00000000  0.00000000       0.094
   0.08462039  0.00000000  0.00000000       0.047
   0.04231020  0.04231020  0.00000000       0.188
   0.08462039  0.04231020  0.00000000       0.188
   0.08462039  0.08462039  0.00000000       0.047
   0.04231020  0.04231020  0.04231020       0.125
   0.08462039  0.04231020  0.04231020       0.188
   0.08462039  0.08462039  0.04231020       0.094
   0.08462039  0.08462039  0.08462039       0.016

 k-points in reciprocal lattice and weights: 1x1x1
   0.00000000  0.00000000  0.00000000       0.016
   0.25000000  0.00000000  0.00000000       0.094
   0.50000000  0.00000000  0.00000000       0.047
   0.25000000  0.25000000  0.00000000       0.188
   0.50000000  0.25000000  0.00000000       0.188
   0.50000000  0.50000000  0.00000000       0.047
   0.25000000  0.25000000  0.25000000       0.125
   0.50000000  0.25000000  0.25000000       0.188
   0.50000000  0.50000000  0.25000000       0.094
   0.50000000  0.50000000  0.50000000       0.016

 position of ions in fractional coordinates (direct lattice)
   0.50000000  0.50000000  0.50000000
   0.00000000  0.00000000  0.00000000
   0.00000000  0.50000000  0.00000000
   0.00000000  0.00000000  0.50000000
   0.50000000  0.00000000  0.00000000

 position of ions in cartesian coordinates  (Angst):
   2.95437056  2.95437056  2.95437056
   0.00000000  0.00000000  0.00000000
   0.00000000  2.95437056  0.00000000
   0.00000000  0.00000000  2.95437056
   2.95437056  0.00000000  0.00000000

 k-point  1 :   0.0000 0.0000 0.0000  plane waves:    2469
 k-point  2 :   0.2500 0.0000 0.0000  plane waves:    2441
 k-point  3 :   0.5000 0.0000 0.0000  plane waves:    2416
 k-point  4 :   0.2500 0.2500 0.0000  plane waves:    2452
 k-point  5 :   0.5000 0.2500 0.0000  plane waves:    2444
 k-point  6 :   0.5000 0.5000 0.0000  plane waves:    2464
 k-point  7 :   0.2500 0.2500 0.2500  plane waves:    2425
 k-point  8 :   0.5000 0.2500 0.2500  plane waves:    2422
 k-point  9 :   0.5000 0.5000 0.2500  plane waves:    2424
 k-point 10 :   0.5000 0.5000 0.5000  plane waves:    2440

 maximum and minimum number of plane-waves per node :       321      284

 maximum number of plane-waves:      2469
 maximum index in each direction:
   IXMAX=    8   IYMAX=    8   IZMAX=    8
   IXMIN=   -8   IYMIN=   -8   IZMIN=   -8

 real space projection operators:
  max/ min on nodes  :        333.29        232.57

 parallel 3D FFT for wavefunctions:
    minimum data exchange during FFTs selected (reduces bandwidth)
 parallel 3D FFT for charge:
    minimum data exchange during FFTs selected (reduces bandwidth)

 Broyden mixing: mesh for mixing (old mesh)
   NGX = 17   NGY = 17   NGZ = 17
  (NGX  = 72   NGY  = 72   NGZ  = 72)
  gives a total of   4913 points

 initial charge density was supplied:
 charge density of overlapping atoms calculated
 number of electron      44.0000000 magnetization
 keeping initial charge density in first step

 Maximum index for non-local projection operator          719
 Maximum index for augmentation-charges         4162 (set IRDMAX)

 First call to EWALD:  gamma=   0.300
 Maximum number of real-space cells 3x 3x 3
 Maximum number of reciprocal cells 3x 3x 3

--------------------------------------- Iteration      1(   1)  ---------------------------------------

 eigenvalue-minimisations  :   648
 total energy-change (2. order) : 0.1449051E+03  (-0.1381137E+04)
 number of electron      44.0000000 magnetization
 augmentation part       44.0000000 magnetization

 Free energy of the ion-electron system (eV)
  alpha Z        PSCENC =       109.31315017
  Ewald energy   TEWEN  =     -2257.86651636
  -Hartree energ DENC   =      -953.20237667
  -exchange      EXHF   =         0.00000000
  -V(xc)+E(xc)   XCENC  =       115.45553069
  PAW double counting   =      2704.24521816    -2838.49023175
  entropy T*S    EENTRO =        -0.00048207
  eigenvalues    EBANDS =       -57.11920224
  atomic energy  EATOM  =      3322.57002482
  Solvation  Ediel_sol  =         0.00000000
  free energy    TOTEN  =       144.90511476 eV

  energy without entropy =      144.90559683  energy(sigma->0) =      144.90535579

[...]

 eigenvalue-minimisations  :   800
 total energy-change (2. order) :-0.3026705E+03  (-0.2911790E+03)
 number of electron      44.0000000 magnetization
 augmentation part       44.0000000 magnetization

[...]

 Broyden mixing:
  rms(total) = 0.36595E+00    rms(broyden)= 0.36586E+00
  rms(prec ) = 0.74450E+00
  weight for this iteration     100.00

[...]

 eigenvalues of (default mixing * dielectric matrix)
  average eigenvalue GAMMA=   1.2165
  1.2165

[...]

 eigenvalue-minimisations  :   688
 total energy-change (2. order) :-0.6163130E-03  (-0.7182925E-04)
 number of electron      44.0000001 magnetization
 augmentation part       -0.5842227 magnetization

[...]

 Broyden mixing:
  rms(total) = 0.22850E-03    rms(broyden)= 0.22846E-03
  rms(prec ) = 0.28651E-03
  weight for this iteration     100.00

 eigenvalues of (default mixing * dielectric matrix)
  average eigenvalue GAMMA=   1.6074
  3.1105  2.4229  1.9034  1.3003  1.0878  1.0878  0.9121  1.0341

[...]

--------------------------------------- Iteration      1(  14)  ---------------------------------------

 eigenvalue-minimisations  :   552
 total energy-change (2. order) : 0.6014010E-06  (-0.3527284E-07)
 number of electron      44.0000001 magnetization
 augmentation part       -0.5848737 magnetization

 Free energy of the ion-electron system (eV)
  alpha Z        PSCENC =       109.31315017
  Ewald energy   TEWEN  =     -2257.86651636
  -Hartree energ DENC   =      -958.40003633
  -exchange      EXHF   =         0.00000000
  -V(xc)+E(xc)   XCENC  =       120.39747383
  PAW double counting   =      2902.75470836    -3036.95936314
  entropy T*S    EENTRO =        -0.00000000
  eigenvalues    EBANDS =      -380.43092937
  atomic energy  EATOM  =      3322.57002482
  Solvation  Ediel_sol  =         0.00000000
  free energy    TOTEN  =      -178.62148801 eV

  energy without entropy =     -178.62148801  energy(sigma->0) =     -178.62148801

 average (electrostatic) potential at core
  the test charge radii are     1.1312  1.1541  1.0178
  (the norm of the test charge is              1.0000)
       1 -55.7520       2-101.5591       3 -69.0315       4 -69.0315       5 -69.0315

 E-fermi :   0.8768     XC(G=0):  -7.9415     alpha+bet : -6.8598

 k-point     1 :       0.0000    0.0000    0.0000
  band No.  band energies     occupation
      1     -21.2427      2.00000
      2     -16.4285      2.00000
      3     -16.4285      2.00000
      4     -16.2311      2.00000
      5     -16.2311      2.00000
      6     -16.2311      2.00000
      7     -14.4532      2.00000
      8     -13.7341      2.00000
      9     -13.7341      2.00000
     10      -7.5861      2.00000
     11      -7.5861      2.00000
     12      -7.5861      2.00000
     13      -6.3591      2.00000
     14      -3.4791      2.00000
     15      -3.4791      2.00000
     16      -3.4791      2.00000
     17      -1.3344      2.00000
     18      -1.3344      2.00000
     19      -1.3344      2.00000
     20      -1.2224      2.00000
     21      -1.2224      2.00000
     22      -1.2224      2.00000
     23       4.3945      0.00000
     24       5.4312      0.00000
     25       5.4312      0.00000
     26       6.2927      0.00000
     27       6.2927      0.00000
     28       6.2927      0.00000
     29       7.0313      0.00000
     30       7.0313      0.00000
     31       7.0313      0.00000
     32       9.1963      0.00000

[...]

 k-point    10 :       0.5000    0.5000    0.5000
  band No.  band energies     occupation
      1     -21.2400      2.00000
      2     -16.3155      2.00000
      3     -16.3155      2.00000
      4     -16.2331      2.00000
      5     -16.2331      2.00000
      6     -16.2331      2.00000
      7     -14.0690      2.00000
      8     -14.0690      2.00000
      9     -14.0690      2.00000
     10      -8.3341      2.00000
     11      -7.6179      2.00000
     12      -7.6179      2.00000
     13      -7.6179      2.00000
     14      -2.0334      2.00000
     15      -2.0334      2.00000
     16      -2.0334      2.00000
     17      -1.4297      2.00000
     18      -1.4297      2.00000
     19      -0.8570      2.00000
     20      -0.8570      2.00000
     21      -0.8570      2.00000
     22       0.7854      2.00000
     23       2.6729      0.00000
     24       2.6729      0.00000
     25       2.6729      0.00000
     26       5.9847      0.00000
     27       6.5963      0.00000
     28       6.5963      0.00000
     29       6.5963      0.00000
     30       7.8790      0.00000
     31       7.8790      0.00000
     32       9.2845      0.00000

 soft charge-density along one line, spin component           1
         0         1         2         3         4         5         6         7         8         9
 total charge-density along one line

------------------------ aborting loop because EDIFF is reached ----------------------------------------

 total charge

# of ion       s       p       d       tot
    1        1.780   4.717   0.009   6.507
    2        1.554   0.439   9.839  11.832
    3        1.616   3.271   0.007   4.894
    4        1.622   3.170   0.009   4.800
    5        1.607   3.413   0.005   5.025
tot          8.179  15.011   9.869  33.058

  FORCE on cell =-STRESS in cart. coord.  units (eV):
  Direction    XX          YY          ZZ          XY          YZ          ZX
  Alpha Z   109.31315   109.31315   109.31315
  Ewald    -752.62289  -752.62289  -752.62289     0.00000     0.00000    -0.00000
  Hartree   319.46712   319.46712   319.46712    -0.00000    -0.00000    -0.00000
  E(xc)    -184.62700  -184.74416  -184.86824    -0.01927    -0.01961    -0.00778
  Local    -381.08957  -381.08957  -381.08957    -0.00000    -0.00000     0.00000
  n-local   224.72492   225.74330   226.20794    -0.01071     0.01436    -0.00081
  augment   101.48490   101.48490   101.48486     0.00000    -0.00001    -0.00001
  Kinetic   566.82818   562.61351   558.38660    -0.65459    -0.66407    -0.26305
  Fock        0.00000     0.00000     0.00000     0.00000     0.00000     0.00000
  Total      -0.02562    -0.02562    -0.02562    -0.00000     0.00000    -0.00000
  in kB      -0.19901    -0.19901    -0.19901    -0.00000     0.00000    -0.00000

 VOLUME and BASIS-vectors are now :
  energy-cutoff  :      300.00
  volume of cell :      206.29
      direct lattice vectors                 reciprocal lattice vectors
     5.908741128  0.000000000 -0.000000000     0.169240787  0.000000000  0.000000000
     0.000000000  5.908741128  0.000000000    -0.000000000  0.169240787  0.000000000
     0.000000000  0.000000000  5.908741128     0.000000000 -0.000000000  0.169240787

  length of vectors
     5.908741128  5.908741128  5.908741128     0.169240787  0.169240787  0.169240787

 FORCES acting on ions
    electron-ion (+dipol)            ewald-force                    non-local-force                 convergence-correction
   -.338E-13 0.606E-12 -.166E-12   0.303E-14 -.135E-14 0.101E-14   0.000E+00 0.000E+00 -.124E-23   0.357E-13 0.805E-14 -.985E-14
   0.378E-13 0.421E-13 -.859E-13   -.229E-14 0.608E-14 0.343E-14   0.000E+00 0.000E+00 0.169E-23   -.493E-13 0.303E-13 0.421E-13
   0.594E-14 -.131E-13 0.213E-13   0.356E-15 -.351E-14 -.773E-15   0.000E+00 0.000E+00 -.310E-23   -.202E-13 0.150E-13 0.120E-13
   0.333E-14 0.252E-14 0.260E-13   -.603E-15 -.224E-14 -.383E-14   0.000E+00 0.000E+00 -.103E-22   -.257E-13 0.660E-14 0.884E-14
   -.121E-13 0.272E-14 -.124E-11   -.153E-14 0.756E-15 0.802E-16   0.000E+00 0.000E+00 0.338E-23   0.488E-13 0.755E-14 0.607E-14
   0.927E-14 0.598E-12 -.149E-11   -.103E-14 -.265E-15 -.811E-16   0.000E+00 0.000E+00 -.955E-23   -.107E-13 0.675E-13 0.592E-13

 POSITION                                       TOTAL-FORCE (eV/Angst)
      2.95437      2.95437      2.95437         0.000000      0.000000      0.000000
      0.00000      0.00000      0.00000         0.000000      0.000000     -0.000000
      0.00000      2.95437      0.00000         0.000000      0.000000      0.000000
      0.00000      0.00000      2.95437         0.000000      0.000000     -0.000000
      2.95437      0.00000      0.00000         0.000000      0.000000     -0.000000
    total drift:                               -0.000000      0.000000     -0.000000

  FREE ENERGIE OF THE ION-ELECTRON SYSTEM (eV)
  free  energy   TOTEN  =      -178.62148801 eV

  energy  without entropy=     -178.62148801  energy(sigma->0) =     -178.62148801

 stress matrix after NEB project (eV)
     -0.02562     -0.00000     -0.00000
     -0.00000     -0.02562     -0.00000
      0.00000      0.00000     -0.02562
  FORCES: max atom, RMS     0.000000    0.000000
  FORCE total and by dimension    0.000000    0.000000
  Stress total and by dimension    0.044381    0.025624

 total charge

# of ion       s       p       d       tot
    1        1.780   4.717   0.009   6.507
    2        1.554   0.439   9.839  11.832
    3        1.616   3.271   0.007   4.894
    4        1.622   3.170   0.009   4.800
    5        1.607   3.413   0.005   5.025
tot          8.179  15.011   9.869  33.058