 vasp.5.4.4.18Apr17-6-g9f103f2a35 (build Jun 22 2020 09:27:21) complex

 INCAR:
 POTCAR:    PAW_PBE Cs_sv 08Apr2002
 POTCAR:    PAW_PBE Pb_d 06Sep2000
 POTCAR:    PAW_PBE Br 06Sep2000
 POTCAR:    PAW_PBE Cs_sv 08Apr2002
   VRHFIN =Cs: 5s5p6s

   TITEL  = PAW_PBE Cs_sv 08Apr2002
   POMASS =  132.900; ZVAL   =    9.000    mass and valenz
   ENMAX  =  220.318; ENMIN  =  165.238 eV

 POTCAR:    PAW_PBE Pb_d 06Sep2000
   VRHFIN =Pb:

   TITEL  = PAW_PBE Pb_d 06Sep2000
   POMASS =  207.200; ZVAL   =   14.000    mass and valenz
   ENMAX  =  237.835; ENMIN  =  178.376 eV

 POTCAR:    PAW_PBE Br 06Sep2000
   VRHFIN =Br: s2p5

   TITEL  = PAW_PBE Br 06Sep2000
   POMASS =   79.904; ZVAL   =    7.000    mass and valenz
   ENMAX  =  216.285; ENMIN  =  162.214 eV

 Optimization of the real space projectors (new method)

 maximal supplied QI-value         = 15.12
 optimisation between [QCUT,QGAM] = [  8.77, 17.69] = [ 21.53, 87.61] Ry
 Optimized for a Real-space Cutoff    1.85 Angstroem

   l    n(q)    QCUT    max X(q) W(low)/X(q) W(high)/X(q)  e(spline)
   0     10     8.768    25.322    0.81E-04    0.51E-04    0.48E-06
   0     10     8.768    99.187    0.78E-04    0.50E-04    0.47E-06
   1      9     8.768    11.761    0.21E-03    0.20E-03    0.37E-06
   1      9     8.768     8.275    0.24E-03    0.22E-03    0.41E-06
   2      9     8.768     3.829    0.23E-04    0.15E-03    0.18E-06
 Optimization of the real space projectors (new method)

[...]

   l    n(q)    QCUT    max X(q) W(low)/X(q) W(high)/X(q)  e(spline)
   2      7     8.768     3.846    0.48E-04    0.11E-03    0.11E-06
   2      7     8.768     8.593    0.20E-03    0.22E-04    0.24E-06
   0      8     8.768    20.082    0.68E-04    0.88E-04    0.41E-07
   0      8     8.768     8.597    0.89E-04    0.13E-03    0.59E-07
   1      8     8.768    33.223    0.15E-03    0.53E-04    0.87E-07
   1      8     8.768    15.899    0.14E-03    0.44E-04    0.78E-07
 Optimization of the real space projectors (new method)

 maximal supplied QI-value         = 17.95
 optimisation between [QCUT,QGAM] = [  8.80, 17.59] = [ 21.67, 86.68] Ry
 Optimized for a Real-space Cutoff    1.59 Angstroem

   l    n(q)    QCUT    max X(q) W(low)/X(q) W(high)/X(q)  e(spline)
   0      8     8.797   175.082    0.82E-04    0.14E-03    0.89E-07
   0      8     8.797   174.004    0.79E-04    0.14E-03    0.86E-07
   1      8     8.797    54.315    0.16E-03    0.14E-04    0.30E-06
   1      8     8.797    42.441    0.16E-03    0.14E-04    0.30E-06
   2      7     8.797     3.596    0.92E-04    0.15E-03    0.85E-07
  PAW_PBE Cs_sv 08Apr2002               :
  PAW_PBE Pb_d 06Sep2000                :
  PAW_PBE Br 06Sep2000                  :

 POSCAR: Cs2 Pb2 Br6
  positions in direct lattice
  velocities in cartesian coordinates

 METAGGA = SCAN     LMAXTAU =  6    LMIXTAU =  F

 VTST: version 3.2, (02/03/18)

 CHAIN: initializing optimizer

 OPT: Using VASP Conjugate-Gradient optimizer
 CHAIN: Read ICHAIN            0

 POSCAR: Cs2 Pb2 Br6
  positions in direct lattice
  velocities in cartesian coordinates

 ion  position               nearest neighbor table
   1  0.750  0.752  0.747-
   2  0.250  0.248  0.253-
   3  0.000  0.000  0.000-   7 2.98   8 2.98   5 2.99   6 2.99   9 2.99  10 2.99
   4  0.500  0.500  0.500-   7 2.98   8 2.98   9 2.99  10 2.99   5 2.99   6 2.99
   5  0.239  0.686  0.260-   3 2.99   4 2.99
   6  0.761  0.314  0.740-   3 2.99   4 2.99
   7  0.255  0.810  0.690-   4 2.98   3 2.98
   8  0.745  0.190  0.310-   4 2.98   3 2.98
   9  0.255  0.245  0.818-   4 2.99   3 2.99
  10  0.745  0.755  0.182-   4 2.99   3 2.99

  LATTYP: Found a triclinic cell.
 ALAT       =    14.6078635187
 B/A-ratio  =     0.5767757057
 C/A-ratio  =     0.8038576247
 COS(alpha) =     0.0003546644
 COS(beta)  =     0.4138897718
 COS(gamma) =     0.8664062654

  Lattice vectors:

 A1 = (  -5.9496605141,  -5.9596515208,  11.9362376861)
 A2 = (  -5.9473011831,  -0.0024626445,   5.9680811068)
 A3 = (   0.1710724419, -11.7401435283,   0.1715119170)

Analysis of symmetry for initial positions (statically):
 Subroutine PRICEL returns:
 Original cell was already a primitive cell.

 Routine SETGRP: Setting up the symmetry group for a
 triclinic supercell.

 Subroutine GETGRP returns: Found  2 space group operations
 (whereof  2 operations were pure point group operations)
 out of a pool of  2 trial point group operations.

The static configuration has the point symmetry S_2 .

Analysis of symmetry for dynamics (positions and initial velocities):
 Subroutine PRICEL returns:
 Original cell was already a primitive cell.

 Routine SETGRP: Setting up the symmetry group for a
 triclinic supercell.

 Subroutine GETGRP returns: Found  2 space group operations
 (whereof  2 operations were pure point group operations)
 out of a pool of  2 trial point group operations.

The dynamic configuration has the point symmetry S_2 .

 Subroutine INISYM returns: Found  2 space group operations
 (whereof  2 operations are pure point group operations),
 and found     1 'primitive' translations

 KPOINTS: 1x1x1

Automatic generation of k-mesh.
Space group operators:
 irot       det(A)        alpha          n_x          n_y          n_z        tau_x        tau_y        tau_z
    1     1.000000     0.000000     1.000000     0.000000     0.000000     0.000000     0.000000    -0.000000
    2    -1.000000     0.000000     1.000000     0.000000     0.000000     0.000000     0.000000    -0.000000

 Subroutine IBZKPT returns following result:

 Found     14 irreducible k-points:

 Following reciprocal coordinates:
            Coordinates               Weight
  0.000000  0.000000  0.000000      1.000000
  0.333333  0.000000  0.000000      2.000000
  0.000000  0.333333  0.000000      2.000000
  0.333333  0.333333  0.000000      2.000000
 -0.333333  0.333333  0.000000      2.000000
  0.000000  0.000000  0.333333      2.000000
  0.333333  0.000000  0.333333      2.000000
 -0.333333  0.000000  0.333333      2.000000
  0.000000  0.333333  0.333333      2.000000
  0.333333  0.333333  0.333333      2.000000
 -0.333333  0.333333  0.333333      2.000000
  0.000000 -0.333333  0.333333      2.000000
  0.333333 -0.333333  0.333333      2.000000
 -0.333333 -0.333333  0.333333      2.000000

 Following cartesian coordinates:
            Coordinates               Weight
  0.000000  0.000000 -0.000000      1.000000
  0.029294  0.029246  0.029204      2.000000
  0.027619 -0.028404 -0.028341      2.000000
  0.056913  0.000842  0.000863      2.000000
 -0.001674 -0.057650 -0.057545      2.000000
 -0.028461  0.027564 -0.028350      2.000000
  0.000833  0.056810  0.000854      2.000000
 -0.057754 -0.001682 -0.057554      2.000000
 -0.000841 -0.000840 -0.056691      2.000000
  0.028453  0.028406 -0.027487      2.000000
 -0.030135 -0.030087 -0.085895      2.000000
 -0.056080  0.055968 -0.000009      2.000000
 -0.026786  0.085214  0.029195      2.000000
 -0.085374  0.026722 -0.029213      2.000000

 SYSTEM =  CsPbBr3 cubic bulk
 POSCAR =  Cs2 Pb2 Br6

 Startparameter for this run:
   NWRITE =      2    write-flag & timer
   PREC   = accura    normal or accurate (medium, high low for compatibility)
   ISTART =      0    job   : 0-new  1-cont  2-samecut
   ICHARG =      2    charge: 1-file 2-atom 10-const
   ISPIN  =      1    spin polarized calculation?
   LNONCOLLINEAR =      F non collinear calculations
   LSORBIT =      F    spin-orbit coupling
   INIWAV =      1    electr: 0-lowe 1-rand  2-diag
   LASPH  =      T    aspherical Exc in radial PAW
   METAGGA=      F    non-selfconsistent MetaGGA calc.

 Electronic Relaxation 1
   ENCUT  =  300.0 eV  22.05 Ry    4.70 a.u.  11.55 11.90 11.91*2*pi/ulx,y,z
   ENINI  =  300.0     initial cutoff
   ENAUG  =  503.9 eV  augmentation charge cutoff
   NELM   =    200;   NELMIN=  2; NELMDL=  0     # of ELM steps
   EDIFF  = 0.1E-05   stopping-criterion for ELM
   LREAL  =      T    real-space projection
   NLSPLINE    = F    spline interpolate recip. space projectors
   LCOMPAT=      F    compatible to vasp.4.4
   GGA_COMPAT  = T    GGA compatible to vasp.4.4-vasp.4.6
   LMAXPAW     = -100 max onsite density
   LMAXMIX     =    2 max onsite mixed and CHGCAR
   VOSKOWN=      0    Vosko Wilk Nusair interpolation
   ROPT   =   -0.00025  -0.00025  -0.00025
 Ionic relaxation
   EDIFFG = -.1E-01   stopping-criterion for IOM
   NSW    =      0    number of steps for IOM
   NBLOCK =      1;   KBLOCK =      1    inner block; outer block
   IBRION =     -1    ionic relax: 0-MD 1-quasi-New 2-CG
   NFREE  =      1    steps in history (QN), initial steepest desc. (CG)
   ISIF   =      3    stress and relaxation
   IWAVPR =     10    prediction:  0-non 1-charg 2-wave 3-comb
   ISYM   =      2    0-nonsym 1-usesym 2-fastsym
   LCORR  =      T    Harris-Foulkes like correction to forces

   POTIM  = 0.5000    time-step for ionic-motion
   TEIN   =    0.0    initial temperature
   TEBEG  =    0.0;   TEEND  =   0.0 temperature during run
   SMASS  =  -3.00    Nose mass-parameter (am)
   estimated Nose-frequenzy (Omega)   =  0.10E-29 period in steps =****** mass=  -0.153E-26a.u.
   SCALEE = 1.0000    scale energy and forces
   NPACO  =    256;   APACO  = 16.0  distance and # of slots for P.C.
   PSTRESS=    0.0 pullay stress

  Mass of Ions in am
   POMASS = 132.90207.20 79.90
  Ionic Valenz
   ZVAL   =   9.00 14.00  7.00
  Atomic Wigner-Seitz radii
  virtual crystal weights
   VCA    =   1.00  1.00  1.00
   NELECT =      88.0000    total number of electrons
   NUPDOWN=      -1.0000    fix difference up-down

 DOS related values:
   EMIN   =  10.00;   EMAX   =-10.00  energy-range for DOS
   EFERMI =   0.00
   ISMEAR =     0;   SIGMA  =   0.01  broadening in eV -4-tet -1-fermi 0-gaus

 Electronic relaxation 2 (details)
   IALGO  =     38    algorithm
   LDIAG  =      T    sub-space diagonalisation (order eigenvalues)
   LSUBROT=      F    optimize rotation matrix (better conditioning)
   TURBO    =      0    0=normal 1=particle mesh
   IRESTART =      0    0=no restart 2=restart with 2 vectors
   NREBOOT  =      0    no. of reboots
   NMIN     =      0    reboot dimension
   EREF     =   0.00    reference energy to select bands
   IMIX   =      4    mixing-type and parameters
     AMIX     =   0.40;   BMIX     =  1.00
     AMIX_MAG =   1.60;   BMIX_MAG =  1.00
     AMIN     =   0.10
     WC   =   100.;   INIMIX=   1;  MIXPRE=   1;  MAXMIX= -45

 Intra band minimization:
   WEIMIN = 0.0000     energy-eigenvalue tresh-hold
   EBREAK =  0.45E-08  absolut break condition
   DEPER  =   0.30     relativ break condition

   TIME   =   0.40     timestep for ELM

  volume/ion in A,a.u.               =      40.44       272.89
  Fermi-wavevector in a.u.,A,eV,Ry     =   0.984698  1.860809 13.192610  0.969629
  Thomas-Fermi vector in A             =   2.115950

 Write flags
   LWAVE        =      F    write WAVECAR
   LDOWNSAMPLE  =      F    k-point downsampling of WAVECAR
   LCHARG       =      F    write CHGCAR
   LVTOT        =      F    write LOCPOT, total local potential
   LVHAR        =      T    write LOCPOT, Hartree potential only
   LELF         =      F    write electronic localiz. function (ELF)
[...]
  -0.33333333  0.33333333  0.00000000       0.074
   0.00000000  0.00000000  0.33333333       0.074
   0.33333333  0.00000000  0.33333333       0.074
  -0.33333333  0.00000000  0.33333333       0.074
   0.00000000  0.33333333  0.33333333       0.074
   0.33333333  0.33333333  0.33333333       0.074
  -0.33333333  0.33333333  0.33333333       0.074
   0.00000000 -0.33333333  0.33333333       0.074
   0.33333333 -0.33333333  0.33333333       0.074
  -0.33333333 -0.33333333  0.33333333       0.074

 position of ions in fractional coordinates (direct lattice)
   0.74993467  0.75170205  0.74680057
   0.25006533  0.24829795  0.25319943
   0.00000000  0.00000000  0.00000000
   0.50000000  0.50000000  0.50000000
   0.23889355  0.68608392  0.26041336
   0.76110645  0.31391608  0.73958664
   0.25530259  0.80964492  0.69002810
   0.74469741  0.19035508  0.30997190
   0.25548657  0.24485200  0.81787266
   0.74451343  0.75514800  0.18212734

 position of ions in cartesian coordinates  (Angst):
   8.80238532  8.78936826 -9.07180771
   2.92114461  2.95570056 -3.03586642
   0.00000000  0.00000000 -0.00000000
   5.86176496  5.87253441 -6.05383707
   5.46030224  2.93512001 -5.68974724
   6.26322769  8.80994881 -6.41792689
   6.29091405  5.58965363 -8.99399048
   5.43261588  6.15541518 -3.11368365
   2.93328429  6.35092130 -6.38628835
   8.79024563  5.39414752 -5.72138578

 k-point  1 :   0.0000 0.0000 0.0000  plane waves:    4791
 k-point  2 :   0.3333 0.0000 0.0000  plane waves:    4736
 k-point  3 :   0.0000 0.3333 0.0000  plane waves:    4773
 k-point  4 :   0.3333 0.3333 0.0000  plane waves:    4766
 k-point  5 :  -0.3333 0.3333 0.0000  plane waves:    4761
 k-point  6 :   0.0000 0.0000 0.3333  plane waves:    4774
 k-point  7 :   0.3333 0.0000 0.3333  plane waves:    4768
 k-point  8 :  -0.3333 0.0000 0.3333  plane waves:    4762
 k-point  9 :   0.0000 0.3333 0.3333  plane waves:    4775
 k-point 10 :   0.3333 0.3333 0.3333  plane waves:    4777
 k-point 11 :  -0.3333 0.3333 0.3333  plane waves:    4763
 k-point 12 :   0.0000-0.3333 0.3333  plane waves:    4789
 k-point 13 :   0.3333-0.3333 0.3333  plane waves:    4790
 k-point 14 :  -0.3333-0.3333 0.3333  plane waves:    4788

 maximum and minimum number of plane-waves per node :       631      570

 maximum number of plane-waves:      4791
 maximum index in each direction:
   IXMAX=   11   IYMAX=   12   IZMAX=   11
   IXMIN=  -11   IYMIN=  -12   IZMIN=  -12

 real space projection operators:
  max/ min on nodes  :        690.92        658.45

 parallel 3D FFT for wavefunctions:
    minimum data exchange during FFTs selected (reduces bandwidth)
 parallel 3D FFT for charge:
    minimum data exchange during FFTs selected (reduces bandwidth)

 Broyden mixing: mesh for mixing (old mesh)
   NGX = 23   NGY = 23   NGZ = 23
  (NGX  = 96   NGY  = 96   NGZ  = 96)
  gives a total of  12167 points

 initial charge density was supplied:
 charge density of overlapping atoms calculated
 number of electron      88.0000000 magnetization
 keeping initial charge density in first step

 Maximum index for non-local projection operator          868
 Maximum index for augmentation-charges         2523 (set IRDMAX)

 First call to EWALD:  gamma=   0.240
 Maximum number of real-space cells 3x 3x 3
 Maximum number of reciprocal cells 3x 3x 3

--------------------------------------- Iteration      1(   1)  ---------------------------------------

 eigenvalue-minimisations  :  1624
 total energy-change (2. order) : 0.3202026E+03  (-0.2817738E+04)
 number of electron      88.0000000 magnetization
 augmentation part       88.0000000 magnetization

 Free energy of the ion-electron system (eV)
  alpha Z        PSCENC =       223.05853069
  Ewald energy   TEWEN  =     -4595.07383442
  -Hartree energ DENC   =     -1841.88184811
  -exchange      EXHF   =         0.00000000
  -V(xc)+E(xc)   XCENC  =       231.00747170
  PAW double counting   =      5408.49043633    -5676.98046350
  entropy T*S    EENTRO =        -0.00046631
  eigenvalues    EBANDS =       -73.55727448
  atomic energy  EATOM  =      6645.14004964
  Solvation  Ediel_sol  =         0.00000000
  free energy    TOTEN  =       320.20260155 eV

  energy without entropy =      320.20306787  energy(sigma->0) =      320.20283471

[...]

 eigenvalue-minimisations  :  1920
 total energy-change (2. order) :-0.6160205E+03  (-0.5965665E+03)
 number of electron      88.0000000 magnetization
 augmentation part       88.0000000 magnetization

[...]

 Broyden mixing:
  rms(total) = 0.50570E+00    rms(broyden)= 0.50553E+00
  rms(prec ) = 0.95422E+00
  weight for this iteration     100.00

[...]

 eigenvalues of (default mixing * dielectric matrix)
  average eigenvalue GAMMA=   1.1900
  1.1900

[...]

 Broyden mixing:
  rms(total) = 0.10001E-03    rms(broyden)= 0.91149E-04
  rms(prec ) = 0.11712E-03
  weight for this iteration     100.00

[...]

 eigenvalue-minimisations  :  1096
 total energy-change (2. order) :-0.2232984E-05  (-0.2426210E-07)
 number of electron      88.0000000 magnetization
 augmentation part       -1.1635107 magnetization

 Broyden mixing:
  rms(total) = 0.62866E-04    rms(broyden)= 0.47555E-04
  rms(prec ) = 0.55054E-04
  weight for this iteration     100.00
  WARNING: grid for Broyden might be to small

 eigenvalues of (default mixing * dielectric matrix)
  average eigenvalue GAMMA=   1.5877
  2.9097  2.9097  2.3295  1.8149  1.1193  1.1193  1.0775  1.0775  0.9262  0.5930

[...]

--------------------------------------- Iteration      1(  16)  ---------------------------------------

 eigenvalue-minimisations  :  1112
 total energy-change (2. order) : 0.5028031E-06  (-0.6283698E-08)
 number of electron      88.0000000 magnetization
 augmentation part       -1.1635107 magnetization

 Free energy of the ion-electron system (eV)
  alpha Z        PSCENC =       223.05853069
  Ewald energy   TEWEN  =     -4595.07383442
  -Hartree energ DENC   =     -1849.54677400
  -exchange      EXHF   =         0.00000000
  -V(xc)+E(xc)   XCENC  =       240.70920436
  PAW double counting   =      5782.96965828    -6051.12538744
  entropy T*S    EENTRO =        -0.00000000
  eigenvalues    EBANDS =      -753.53425698
  atomic energy  EATOM  =      6645.14004964
  Solvation  Ediel_sol  =         0.00000000
  free energy    TOTEN  =      -357.40280987 eV

  energy without entropy =     -357.40280987  energy(sigma->0) =     -357.40280987

 average (electrostatic) potential at core
  the test charge radii are     1.1312  1.1541  1.0178
  (the norm of the test charge is              1.0000)
       1 -55.3947       2 -55.3949       3-101.5932       4-101.5931       5 -68.9819
       6 -68.9819       7 -68.9894       8 -68.9894       9 -68.9772      10 -68.9772

 E-fermi :   0.6440     XC(G=0):  -8.0455     alpha+bet : -6.9988

 k-point     1 :       0.0000    0.0000    0.0000
  band No.  band energies     occupation
      1     -20.9116      2.00000
      2     -20.9077      2.00000
      3     -16.4262      2.00000
      4     -16.4246      2.00000
      5     -16.3303      2.00000
      6     -16.3292      2.00000
      7     -16.2665      2.00000
      8     -16.2652      2.00000
      9     -16.2508      2.00000
     10     -16.2500      2.00000
     11     -16.2494      2.00000
     12     -16.2484      2.00000
     13     -14.3582      2.00000
     14     -14.0323      2.00000
     15     -14.0209      2.00000
     16     -13.9678      2.00000
     17     -13.7246      2.00000
     18     -13.7205      2.00000
     19      -8.1927      2.00000
     20      -7.3384      2.00000
     21      -7.3200      2.00000
     22      -7.3098      2.00000
     23      -7.2991      2.00000
     24      -7.2833      2.00000
     25      -7.2827      2.00000
     26      -6.4648      2.00000
     27      -3.3867      2.00000
     28      -3.3604      2.00000
     29      -3.1779      2.00000
     30      -1.9232      2.00000
     31      -1.9221      2.00000
     32      -1.8922      2.00000
     33      -1.5504      2.00000
     34      -1.4386      2.00000
     35      -1.4377      2.00000
     36      -1.2979      2.00000
     37      -1.2668      2.00000
     38      -1.1812      2.00000
     39      -1.1726      2.00000
     40      -1.0379      2.00000
     41      -0.9134      2.00000
     42      -0.8990      2.00000
     43      -0.8553      2.00000
     44       0.5635      2.00000
     45       2.7295      0.00000
     46       2.8161      0.00000
     47       2.8483      0.00000
     48       4.7230      0.00000
     49       5.7994      0.00000
     50       5.9149      0.00000
     51       6.1928      0.00000
     52       6.4943      0.00000
     53       6.5384      0.00000
     54       6.5530      0.00000
     55       6.6714      0.00000
     56       6.6794      0.00000

[...]

 k-point    14 :      -0.3333   -0.3333    0.3333
  band No.  band energies     occupation
      1     -20.9096      2.00000
      2     -20.9093      2.00000
      3     -16.4033      2.00000
      4     -16.4029      2.00000
      5     -16.3561      2.00000
      6     -16.3555      2.00000
      7     -16.2659      2.00000
      8     -16.2657      2.00000
      9     -16.2505      2.00000
     10     -16.2500      2.00000
     11     -16.2495      2.00000
     12     -16.2488      2.00000
     13     -14.1742      2.00000
     14     -14.1365      2.00000
     15     -14.0091      2.00000
     16     -13.9301      2.00000
     17     -13.8280      2.00000
     18     -13.7827      2.00000
     19      -7.4611      2.00000
     20      -7.4581      2.00000
     21      -7.3029      2.00000
     22      -7.2945      2.00000
     23      -7.2837      2.00000
     24      -7.2757      2.00000
     25      -7.2518      2.00000
     26      -7.2442      2.00000
     27      -3.1517      2.00000
     28      -2.8474      2.00000
     29      -2.7663      2.00000
     30      -2.2284      2.00000
     31      -2.1232      2.00000
     32      -2.0075      2.00000
     33      -1.6911      2.00000
     34      -1.6210      2.00000
     35      -1.4907      2.00000
     36      -1.3932      2.00000
     37      -1.3682      2.00000
     38      -1.2801      2.00000
     39      -1.2571      2.00000
     40      -1.1398      2.00000
     41      -1.1024      2.00000
     42      -0.9643      2.00000
     43      -0.6827      2.00000
     44      -0.5459      2.00000
     45       3.3617      0.00000
     46       3.9599      0.00000
     47       4.1799      0.00000
     48       5.0851      0.00000
     49       5.4294      0.00000
     50       5.9094      0.00000
     51       6.2319      0.00000
     52       6.4842      0.00000
     53       6.6522      0.00000
     54       6.7969      0.00000
     55       6.8879      0.00000
     56       7.0867      0.00000

 soft charge-density along one line, spin component           1
         0         1         2         3         4         5         6         7         8         9
 total charge-density along one line

------------------------ aborting loop because EDIFF is reached ----------------------------------------

 total charge

# of ion       s       p       d       tot
    1        1.784   4.718   0.015   6.517
    2        1.784   4.718   0.015   6.517
    3        1.552   0.428   9.835  11.814
    4        1.552   0.428   9.835  11.814
    5        1.614   3.283   0.006   4.904
    6        1.614   3.283   0.006   4.904
    7        1.614   3.283   0.006   4.904
    8        1.614   3.283   0.006   4.904
    9        1.615   3.283   0.006   4.904
   10        1.615   3.283   0.006   4.904
tot         16.359  29.991  19.738  66.089

  FORCE on cell =-STRESS in cart. coord.  units (eV):
  Direction    XX          YY          ZZ          XY          YZ          ZX
  Alpha Z   223.05853   223.05853   223.05853
  Ewald   -1531.01045 -1532.99220 -1531.07914   -36.63879   -43.03366   -39.40460
  Hartree   619.64123   615.91197   613.99345   -21.67722   -25.45124   -23.39573
  E(xc)    -369.45050  -369.44427  -369.43540    -0.03341    -0.03896    -0.03259
  Local    -721.15311  -715.46250  -715.43748    57.95635    68.05124    62.39888
  n-local   450.20156   450.19019   450.22010    -0.27763    -0.30672    -0.28827
  augment   203.13862   203.12257   203.10589    -0.17553    -0.20025    -0.18990
  Kinetic  1125.12486  1125.18154  1125.22211     0.84694     0.98937     0.93742
  Fock        0.00000     0.00000     0.00000     0.00000     0.00000     0.00000
  Total      -0.44927    -0.43418    -0.35194     0.00072     0.00979     0.02522
  in kB      -1.78000    -1.72020    -1.39436     0.00284     0.03878     0.09992

 VOLUME and BASIS-vectors are now :
  energy-cutoff  :      300.00
  volume of cell :      404.39
      direct lattice vectors                 reciprocal lattice vectors
     5.773869410  5.785417297 -0.171436444     0.087881621  0.087738331  0.087611835
     5.947301183  0.002462645 -5.968081107     0.082858497 -0.085212560 -0.085023209
     0.002359331  5.957188876 -5.968156579    -0.085381866  0.082691182 -0.085050458

  length of vectors
     8.175451775  8.425460790  8.432496536     0.151977063  0.146135749  0.146155654

 FORCES acting on ions
    electron-ion (+dipol)            ewald-force                    non-local-force                 convergence-correction
   0.169E+01 -.339E+01 0.185E+01   -.168E+01 0.335E+01 -.183E+01   -.166E-01 0.331E-01 -.197E-01   -.162E-04 0.334E-04 -.398E-05
   -.169E+01 0.339E+01 -.185E+01   0.168E+01 -.335E+01 0.183E+01   0.166E-01 -.331E-01 0.197E-01   0.162E-04 -.334E-04 0.398E-05
   -.129E-14 -.551E-13 0.501E-13   -.426E-13 0.497E-13 -.711E-14   0.000E+00 0.000E+00 -.265E-22   -.388E-13 0.976E-14 0.260E-13
   -.161E-11 -.136E-11 0.496E-11   0.000E+00 0.142E-13 -.711E-13   0.000E+00 0.000E+00 0.529E-22   -.972E-13 -.474E-14 -.494E-15
   0.203E+02 0.129E-01 -.170E+02   -.205E+02 -.151E-01 0.171E+02   0.178E+00 0.757E-02 -.137E+00   0.447E-04 -.504E-05 0.120E-04
   -.203E+02 -.129E-01 0.170E+02   0.205E+02 0.151E-01 -.171E+02   -.178E+00 -.757E-02 0.137E+00   -.447E-04 0.504E-05 -.120E-04
   -.168E+02 0.152E+02 -.536E-01   0.170E+02 -.153E+02 0.542E-01   -.140E+00 0.121E+00 -.236E-02   -.537E-04 0.280E-04 -.237E-05
   0.168E+02 -.152E+02 0.536E-01   -.170E+02 0.153E+02 -.542E-01   0.140E+00 -.121E+00 0.236E-02   0.537E-04 -.280E-04 0.237E-05
   -.392E-02 -.222E+02 0.204E+02   0.345E-02 0.224E+02 -.206E+02   -.242E-02 -.166E+00 0.149E+00   0.143E-05 -.308E-04 -.913E-05
   0.392E-02 0.222E+02 -.204E+02   -.345E-02 -.224E+02 0.206E+02   0.242E-02 0.166E+00 -.149E+00   -.143E-05 0.308E-04 0.913E-05
   -.292E-11 0.827E-11 0.373E-11   -.108E-13 0.000E+00 -.107E-13   0.000E+00 0.000E+00 -.278E-16   -.148E-12 -.254E-13 0.198E-13

 POSITION                                       TOTAL-FORCE (eV/Angst)
      8.80239      8.78937     -9.07181         0.001943     -0.004187      0.002271
      2.92114      2.95570     -3.03587        -0.001943      0.004187     -0.002271
      0.00000      0.00000     -0.00000         0.000000      0.000000     -0.000000
      5.86176      5.87253     -6.05384         0.000000     -0.000000     -0.000000
      5.46030      2.93512     -5.68975         0.001362      0.007325     -0.011321
      6.26323      8.80995     -6.41793        -0.001362     -0.007325      0.011321
      6.29091      5.58965     -8.99399         0.008451     -0.004746     -0.002074
      5.43262      6.15542     -3.11368        -0.008451      0.004746      0.002074
      2.93328      6.35092     -6.38629        -0.002934      0.004600      0.002330
      8.79025      5.39415     -5.72139         0.002934     -0.004600     -0.002330
    total drift:                               -0.000000      0.000000      0.000000

  FREE ENERGIE OF THE ION-ELECTRON SYSTEM (eV)
  free  energy   TOTEN  =      -357.40280987 eV

  energy  without entropy=     -357.40280987  energy(sigma->0) =     -357.40280987

 stress matrix after NEB project (eV)
     -0.44927      0.00072      0.02522
      0.00072     -0.43418      0.00979
      0.02522      0.00979     -0.35194
  FORCES: max atom, RMS     0.013553    0.008290
  FORCE total and by dimension    0.026215    0.011321
  Stress total and by dimension    0.718107    0.449270

 total charge

# of ion       s       p       d       tot
    1        1.784   4.718   0.015   6.517
    2        1.784   4.718   0.015   6.517
    3        1.552   0.428   9.835  11.814
    4        1.552   0.428   9.835  11.814
    5        1.614   3.283   0.006   4.904
    6        1.614   3.283   0.006   4.904
    7        1.614   3.283   0.006   4.904
    8        1.614   3.283   0.006   4.904
    9        1.615   3.283   0.006   4.904
   10        1.615   3.283   0.006   4.904
tot         16.359  29.991  19.738  66.089