 vasp.5.4.4.18Apr17-6-g9f103f2a35 (build Jun 22 2020 09:27:21) complex

 INCAR:
 POTCAR:    PAW_PBE Cs_sv 08Apr2002
 POTCAR:    PAW_PBE Pb_d 06Sep2000
 POTCAR:    PAW_PBE Br 06Sep2000
 POTCAR:    PAW_PBE Cs_sv 08Apr2002
   VRHFIN =Cs: 5s5p6s

   TITEL  = PAW_PBE Cs_sv 08Apr2002
   POMASS =  132.900; ZVAL   =    9.000    mass and valenz
   ENMAX  =  220.318; ENMIN  =  165.238 eV

 POTCAR:    PAW_PBE Pb_d 06Sep2000
   VRHFIN =Pb:

   TITEL  = PAW_PBE Pb_d 06Sep2000
   POMASS =  207.200; ZVAL   =   14.000    mass and valenz
   ENMAX  =  237.835; ENMIN  =  178.376 eV

 POTCAR:    PAW_PBE Br 06Sep2000
   VRHFIN =Br: s2p5

   TITEL  = PAW_PBE Br 06Sep2000
   POMASS =   79.904; ZVAL   =    7.000    mass and valenz
   ENMAX  =  216.285; ENMIN  =  162.214 eV

 Optimization of the real space projectors (new method)

 maximal supplied QI-value         = 15.12
 optimisation between [QCUT,QGAM] = [  8.77, 17.69] = [ 21.53, 87.61] Ry
 Optimized for a Real-space Cutoff    1.85 Angstroem

   l    n(q)    QCUT    max X(q) W(low)/X(q) W(high)/X(q)  e(spline)
   0     10     8.768    25.322    0.81E-04    0.51E-04    0.48E-06
   0     10     8.768    99.187    0.78E-04    0.50E-04    0.47E-06
   1      9     8.768    11.761    0.21E-03    0.20E-03    0.37E-06
   1      9     8.768     8.275    0.24E-03    0.22E-03    0.41E-06
   2      9     8.768     3.829    0.23E-04    0.15E-03    0.18E-06
 Optimization of the real space projectors (new method)

[...]

   l    n(q)    QCUT    max X(q) W(low)/X(q) W(high)/X(q)  e(spline)
   2      7     8.768     3.846    0.48E-04    0.11E-03    0.11E-06
   2      7     8.768     8.593    0.20E-03    0.22E-04    0.24E-06
   0      8     8.768    20.082    0.68E-04    0.88E-04    0.41E-07
   0      8     8.768     8.597    0.89E-04    0.13E-03    0.59E-07
   1      8     8.768    33.223    0.15E-03    0.53E-04    0.87E-07
   1      8     8.768    15.899    0.14E-03    0.44E-04    0.78E-07
 Optimization of the real space projectors (new method)

 maximal supplied QI-value         = 17.95
 optimisation between [QCUT,QGAM] = [  8.80, 17.59] = [ 21.67, 86.68] Ry
 Optimized for a Real-space Cutoff    1.59 Angstroem

   l    n(q)    QCUT    max X(q) W(low)/X(q) W(high)/X(q)  e(spline)
   0      8     8.797   175.082    0.82E-04    0.14E-03    0.89E-07
   0      8     8.797   174.004    0.79E-04    0.14E-03    0.86E-07
   1      8     8.797    54.315    0.16E-03    0.14E-04    0.30E-06
   1      8     8.797    42.441    0.16E-03    0.14E-04    0.30E-06
   2      7     8.797     3.596    0.92E-04    0.15E-03    0.85E-07
  PAW_PBE Cs_sv 08Apr2002               :
  PAW_PBE Pb_d 06Sep2000                :
  PAW_PBE Br 06Sep2000                  :

 POSCAR: Cs2 Pb2 Br6
  positions in direct lattice
  velocities in cartesian coordinates

 METAGGA = SCAN     LMAXTAU =  6    LMIXTAU =  F

 VTST: version 3.2, (02/03/18)

 CHAIN: initializing optimizer

 OPT: Using VASP Conjugate-Gradient optimizer
 CHAIN: Read ICHAIN            0

 POSCAR: Cs2 Pb2 Br6
  positions in direct lattice
  velocities in cartesian coordinates

 ion  position               nearest neighbor table
   1  0.748  0.752  0.740-
   2  0.252  0.248  0.260-
   3  0.000  0.000  0.000-   9 2.99  10 2.99   5 2.99   6 2.99   7 2.99   8 2.99
   4  0.500  0.500  0.500-   9 2.99  10 2.99   5 2.99   6 2.99   7 2.99   8 2.99
   5  0.204  0.704  0.296-   3 2.99   4 2.99
   6  0.796  0.296  0.704-   3 2.99   4 2.99
   7  0.291  0.791  0.709-   3 2.99   4 2.99
   8  0.709  0.209  0.291-   3 2.99   4 2.99
   9  0.256  0.244  0.828-   4 2.99   3 2.99
  10  0.744  0.756  0.172-   4 2.99   3 2.99

  LATTYP: Found a base centered monoclinic cell.
 ALAT       =    11.7605790849
 B/A-ratio  =     0.9908772161
 C/A-ratio  =     2.5382874501
 COS(beta)  =    -0.6963237438

  Lattice vectors:

 A1 = (  -5.8266449318,   5.8798831787,  -0.0691296455)
 A2 = (   5.8266449318,   5.8798831787,  -0.0691296455)
 A3 = (   0.0000000000, -29.3300719230,  -5.5563191708)

Analysis of symmetry for initial positions (statically):
 Subroutine PRICEL returns:
 Original cell was already a primitive cell.

 Routine SETGRP: Setting up the symmetry group for a
 base centered monoclinic supercell.

 Subroutine GETGRP returns: Found  4 space group operations
 (whereof  2 operations were pure point group operations)
 out of a pool of  4 trial point group operations.

The static configuration has the point symmetry S_2 .
 The point group associated with its full space group is C_2h.

Analysis of symmetry for dynamics (positions and initial velocities):
 Subroutine PRICEL returns:
 Original cell was already a primitive cell.

 Routine SETGRP: Setting up the symmetry group for a
 base centered monoclinic supercell.

 Subroutine GETGRP returns: Found  4 space group operations
 (whereof  2 operations were pure point group operations)
 out of a pool of  4 trial point group operations.

The dynamic configuration has the point symmetry S_2 .
 The point group associated with its full space group is C_2h.

 Subroutine INISYM returns: Found  4 space group operations
 (whereof  2 operations are pure point group operations),
 and found     1 'primitive' translations

 KPOINTS: 1x1x1

Automatic generation of k-mesh.
Space group operators:
 irot       det(A)        alpha          n_x          n_y          n_z        tau_x        tau_y        tau_z
    1     1.000000     0.000000     1.000000     0.000000     0.000000     0.000000     0.000000     0.000000
    2    -1.000000     0.000000     1.000000     0.000000     0.000000     0.000000     0.000000     0.000000
    3     1.000000   180.000000     1.000000     0.000000     0.000000     0.500000    -0.500000     0.500000
    4    -1.000000   180.000000     1.000000     0.000000     0.000000     0.500000    -0.500000     0.500000

 Subroutine IBZKPT returns following result:

 Found     10 irreducible k-points:

 Following reciprocal coordinates:
            Coordinates               Weight
  0.000000  0.000000  0.000000      1.000000
  0.333333  0.000000  0.000000      4.000000
  0.333333  0.333333  0.000000      2.000000
 -0.333333  0.333333  0.000000      2.000000
  0.000000  0.000000  0.333333      4.000000
  0.333333  0.000000  0.333333      2.000000
 -0.333333  0.000000  0.333333      4.000000
  0.000000  0.333333  0.333333      2.000000
 -0.333333  0.333333  0.333333      4.000000
 -0.333333 -0.333333  0.333333      2.000000

 Following cartesian coordinates:
            Coordinates               Weight
  0.000000  0.000000 -0.000000      1.000000
  0.028604  0.028681  0.028576      4.000000
  0.057208  0.000000 -0.000000      2.000000
 -0.000000 -0.057362 -0.057152      2.000000
 -0.028604  0.028017 -0.027910      4.000000
  0.000000  0.056698  0.000666      2.000000
 -0.057208 -0.000664 -0.056486      4.000000
  0.000000 -0.000664 -0.056486      2.000000
 -0.028604 -0.029345 -0.085062      4.000000
 -0.085813  0.028017 -0.027910      2.000000

 SYSTEM =  CsPbBr3 cubic bulk
 POSCAR =  Cs2 Pb2 Br6

 Startparameter for this run:
   NWRITE =      2    write-flag & timer
   PREC   = accura    normal or accurate (medium, high low for compatibility)
   ISTART =      0    job   : 0-new  1-cont  2-samecut
   ICHARG =      2    charge: 1-file 2-atom 10-const
   ISPIN  =      1    spin polarized calculation?
   LNONCOLLINEAR =      F non collinear calculations
   LSORBIT =      F    spin-orbit coupling
   INIWAV =      1    electr: 0-lowe 1-rand  2-diag
   LASPH  =      T    aspherical Exc in radial PAW
   METAGGA=      F    non-selfconsistent MetaGGA calc.

 Electronic Relaxation 1
   ENCUT  =  300.0 eV  22.05 Ry    4.70 a.u.  11.69 11.71 11.90*2*pi/ulx,y,z
   ENINI  =  300.0     initial cutoff
   ENAUG  =  503.9 eV  augmentation charge cutoff
   NELM   =    200;   NELMIN=  2; NELMDL=  0     # of ELM steps
   EDIFF  = 0.1E-05   stopping-criterion for ELM
   LREAL  =      T    real-space projection
   NLSPLINE    = F    spline interpolate recip. space projectors
   LCOMPAT=      F    compatible to vasp.4.4
   GGA_COMPAT  = T    GGA compatible to vasp.4.4-vasp.4.6
   LMAXPAW     = -100 max onsite density
   LMAXMIX     =    2 max onsite mixed and CHGCAR
   VOSKOWN=      0    Vosko Wilk Nusair interpolation
   ROPT   =   -0.00025  -0.00025  -0.00025
 Ionic relaxation
   EDIFFG = -.1E-01   stopping-criterion for IOM
   NSW    =      0    number of steps for IOM
   NBLOCK =      1;   KBLOCK =      1    inner block; outer block
   IBRION =     -1    ionic relax: 0-MD 1-quasi-New 2-CG
   NFREE  =      1    steps in history (QN), initial steepest desc. (CG)
   ISIF   =      3    stress and relaxation
   IWAVPR =     10    prediction:  0-non 1-charg 2-wave 3-comb
   ISYM   =      2    0-nonsym 1-usesym 2-fastsym
   LCORR  =      T    Harris-Foulkes like correction to forces

   POTIM  = 0.5000    time-step for ionic-motion
   TEIN   =    0.0    initial temperature
   TEBEG  =    0.0;   TEEND  =   0.0 temperature during run
   SMASS  =  -3.00    Nose mass-parameter (am)
   estimated Nose-frequenzy (Omega)   =  0.10E-29 period in steps =****** mass=  -0.157E-26a.u.
   SCALEE = 1.0000    scale energy and forces
   NPACO  =    256;   APACO  = 16.0  distance and # of slots for P.C.
   PSTRESS=    0.0 pullay stress

  Mass of Ions in am
   POMASS = 132.90207.20 79.90
  Ionic Valenz
   ZVAL   =   9.00 14.00  7.00
  Atomic Wigner-Seitz radii
  virtual crystal weights
   VCA    =   1.00  1.00  1.00
   NELECT =      88.0000    total number of electrons
   NUPDOWN=      -1.0000    fix difference up-down

 DOS related values:
   EMIN   =  10.00;   EMAX   =-10.00  energy-range for DOS
   EFERMI =   0.00
   ISMEAR =     0;   SIGMA  =   0.01  broadening in eV -4-tet -1-fermi 0-gaus

 Electronic relaxation 2 (details)
   IALGO  =     38    algorithm
   LDIAG  =      T    sub-space diagonalisation (order eigenvalues)
   LSUBROT=      F    optimize rotation matrix (better conditioning)
   TURBO    =      0    0=normal 1=particle mesh
   IRESTART =      0    0=no restart 2=restart with 2 vectors
   NREBOOT  =      0    no. of reboots
   NMIN     =      0    reboot dimension
   EREF     =   0.00    reference energy to select bands
   IMIX   =      4    mixing-type and parameters
     AMIX     =   0.40;   BMIX     =  1.00
     AMIX_MAG =   1.60;   BMIX_MAG =  1.00
     AMIN     =   0.10
     WC   =   100.;   INIMIX=   1;  MIXPRE=   1;  MAXMIX= -45

 Intra band minimization:
   WEIMIN = 0.0000     energy-eigenvalue tresh-hold
   EBREAK =  0.45E-08  absolut break condition
   DEPER  =   0.30     relativ break condition

   TIME   =   0.40     timestep for ELM

  volume/ion in A,a.u.               =      40.43       272.87
  Fermi-wavevector in a.u.,A,eV,Ry     =   0.984731  1.860872 13.193509  0.969696
  Thomas-Fermi vector in A             =   2.115986

 Write flags
   LWAVE        =      F    write WAVECAR
   LDOWNSAMPLE  =      F    k-point downsampling of WAVECAR
   LCHARG       =      F    write CHGCAR
   LVTOT        =      F    write LOCPOT, total local potential
   LVHAR        =      T    write LOCPOT, Hartree potential only
   LELF         =      F    write electronic localiz. function (ELF)
[...]

 k-points in reciprocal lattice and weights: 1x1x1
   0.00000000  0.00000000  0.00000000       0.037
   0.33333333  0.00000000  0.00000000       0.148
   0.33333333  0.33333333  0.00000000       0.074
  -0.33333333  0.33333333  0.00000000       0.074
   0.00000000  0.00000000  0.33333333       0.148
   0.33333333  0.00000000  0.33333333       0.074
  -0.33333333  0.00000000  0.33333333       0.148
   0.00000000  0.33333333  0.33333333       0.074
  -0.33333333  0.33333333  0.33333333       0.148
  -0.33333333 -0.33333333  0.33333333       0.074

 position of ions in fractional coordinates (direct lattice)
   0.74827598  0.75172402  0.73996803
   0.25172402  0.24827598  0.26003197
   0.00000000  0.00000000  0.00000000
   0.50000000  0.50000000  0.50000000
   0.20400291  0.70400291  0.29599709
   0.79599709  0.29599709  0.70400291
   0.29079641  0.79079641  0.70920359
   0.70920359  0.20920359  0.29079641
   0.25649619  0.24350381  0.82826793
   0.74350381  0.75649619  0.17173207

 position of ions in cartesian coordinates  (Angst):
   8.73996740  8.85414077 -8.90679959
   2.91332247  3.04431353 -3.03539449
   0.00000000  0.00000000 -0.00000000
   5.82664493  5.94922715 -5.97109704
   5.29062746  3.00928556 -5.93653222
   6.36266241  8.88916874 -6.00566187
   6.30205735  5.98389913 -8.92208074
   5.35123251  5.91455516 -3.02011334
   2.91332247  6.45260720 -6.40055127
   8.73996740  5.44584710 -5.54164282

 k-point  1 :   0.0000 0.0000 0.0000  plane waves:    4761
 k-point  2 :   0.3333 0.0000 0.0000  plane waves:    4766
 k-point  3 :   0.3333 0.3333 0.0000  plane waves:    4760
 k-point  4 :  -0.3333 0.3333 0.0000  plane waves:    4778
 k-point  5 :   0.0000 0.0000 0.3333  plane waves:    4776
 k-point  6 :   0.3333 0.0000 0.3333  plane waves:    4767
 k-point  7 :  -0.3333 0.0000 0.3333  plane waves:    4773
 k-point  8 :   0.0000 0.3333 0.3333  plane waves:    4774
 k-point  9 :  -0.3333 0.3333 0.3333  plane waves:    4771
 k-point 10 :  -0.3333-0.3333 0.3333  plane waves:    4781

 maximum and minimum number of plane-waves per node :       618      576

 maximum number of plane-waves:      4781
 maximum index in each direction:
   IXMAX=   12   IYMAX=   12   IZMAX=   11
   IXMIN=  -12   IYMIN=  -12   IZMIN=  -12

 real space projection operators:
  max/ min on nodes  :        685.77        675.48

 parallel 3D FFT for wavefunctions:
    minimum data exchange during FFTs selected (reduces bandwidth)
 parallel 3D FFT for charge:
    minimum data exchange during FFTs selected (reduces bandwidth)

 Broyden mixing: mesh for mixing (old mesh)
   NGX = 23   NGY = 23   NGZ = 23
  (NGX  = 96   NGY  = 96   NGZ  = 96)
  gives a total of  12167 points

 initial charge density was supplied:
 charge density of overlapping atoms calculated
 number of electron      88.0000000 magnetization
 keeping initial charge density in first step

 Maximum index for non-local projection operator          858
 Maximum index for augmentation-charges         2571 (set IRDMAX)

 First call to EWALD:  gamma=   0.240
 Maximum number of real-space cells 3x 3x 3
 Maximum number of reciprocal cells 3x 3x 3

--------------------------------------- Iteration      1(   1)  ---------------------------------------

 eigenvalue-minimisations  :  1160
 total energy-change (2. order) : 0.3260660E+03  (-0.2810677E+04)
 number of electron      88.0000000 magnetization
 augmentation part       88.0000000 magnetization

 Free energy of the ion-electron system (eV)
  alpha Z        PSCENC =       223.08133454
  Ewald energy   TEWEN  =     -4595.06878074
  -Hartree energ DENC   =     -1841.76103423
  -exchange      EXHF   =         0.00000000
  -V(xc)+E(xc)   XCENC  =       231.03280070
  PAW double counting   =      5408.49043633    -5676.98046350
  entropy T*S    EENTRO =        -0.00066948
  eigenvalues    EBANDS =       -67.86771110
  atomic energy  EATOM  =      6645.14004964
  Solvation  Ediel_sol  =         0.00000000
  free energy    TOTEN  =       326.06596214 eV

  energy without entropy =      326.06663162  energy(sigma->0) =      326.06629688

[...]

 eigenvalue-minimisations  :  1344
 total energy-change (2. order) :-0.6184622E+03  (-0.5986518E+03)
 number of electron      88.0000000 magnetization
 augmentation part       88.0000000 magnetization

[...]

 Broyden mixing:
  rms(total) = 0.50431E+00    rms(broyden)= 0.50414E+00
  rms(prec ) = 0.95778E+00
  weight for this iteration     100.00

[...]

 eigenvalues of (default mixing * dielectric matrix)
  average eigenvalue GAMMA=   1.1867
  1.1867

[...]

 Broyden mixing:
  rms(total) = 0.11101E-03    rms(broyden)= 0.10305E-03
  rms(prec ) = 0.16329E-03
  weight for this iteration     100.00

[...]

 eigenvalue-minimisations  :   792
 total energy-change (2. order) :-0.2612171E-05  (-0.2828656E-07)
 number of electron      88.0000000 magnetization
 augmentation part       -1.1632653 magnetization

 Broyden mixing:
  rms(total) = 0.76053E-04    rms(broyden)= 0.63903E-04
  rms(prec ) = 0.79149E-04
  weight for this iteration     100.00
  WARNING: grid for Broyden might be to small

[...]

 Broyden mixing:
  rms(total) = 0.42829E-04    rms(broyden)= 0.11601E-04
  rms(prec ) = 0.14161E-04
  weight for this iteration     100.00
  WARNING: grid for Broyden might be to small

 eigenvalues of (default mixing * dielectric matrix)
  average eigenvalue GAMMA=   1.7027
  3.4212  2.9951  2.7158  2.2637  1.8571  1.1947  1.1947  1.0601  1.0601  0.9496
  0.9332  0.7872

[...]

--------------------------------------- Iteration      1(  18)  ---------------------------------------

 eigenvalue-minimisations  :   784
 total energy-change (2. order) : 0.4034496E-07  (-0.1061876E-07)
 number of electron      88.0000000 magnetization
 augmentation part       -1.1632810 magnetization

 Free energy of the ion-electron system (eV)
  alpha Z        PSCENC =       223.08133454
  Ewald energy   TEWEN  =     -4595.06878074
  -Hartree energ DENC   =     -1849.53338590
  -exchange      EXHF   =         0.00000000
  -V(xc)+E(xc)   XCENC  =       240.71118270
  PAW double counting   =      5781.35990520    -6049.49216835
  entropy T*S    EENTRO =        -0.00000000
  eigenvalues    EBANDS =      -753.61222555
  atomic energy  EATOM  =      6645.14004964
  Solvation  Ediel_sol  =         0.00000000
  free energy    TOTEN  =      -357.41408846 eV

  energy without entropy =     -357.41408846  energy(sigma->0) =     -357.41408846

 average (electrostatic) potential at core
  the test charge radii are     1.1312  1.1541  1.0178
  (the norm of the test charge is              1.0000)
       1 -55.3674       2 -55.3674       3-101.6041       4-101.6041       5 -68.9933
       6 -68.9933       7 -69.0002       8 -69.0002       9 -68.9675      10 -68.9675

 E-fermi :   0.6693     XC(G=0):  -8.0433     alpha+bet : -6.9996

 k-point     1 :       0.0000    0.0000    0.0000
  band No.  band energies     occupation
      1     -20.8876      2.00000
      2     -20.8834      2.00000
      3     -16.4352      2.00000
      4     -16.4315      2.00000
      5     -16.3404      2.00000
      6     -16.3367      2.00000
      7     -16.2704      2.00000
      8     -16.2685      2.00000
      9     -16.2684      2.00000
     10     -16.2672      2.00000
     11     -16.2601      2.00000
     12     -16.2581      2.00000
     13     -14.3585      2.00000
     14     -14.0449      2.00000
     15     -13.9981      2.00000
     16     -13.9880      2.00000
     17     -13.7403      2.00000
     18     -13.7240      2.00000
     19      -8.1880      2.00000
     20      -7.3333      2.00000
     21      -7.2965      2.00000
     22      -7.2796      2.00000
     23      -7.2726      2.00000
     24      -7.2670      2.00000
     25      -7.2660      2.00000
     26      -6.4788      2.00000
     27      -3.4039      2.00000
     28      -3.2726      2.00000
     29      -3.2293      2.00000
     30      -1.9166      2.00000
     31      -1.9084      2.00000
     32      -1.8956      2.00000
     33      -1.5131      2.00000
     34      -1.4382      2.00000
     35      -1.4329      2.00000
     36      -1.3653      2.00000
     37      -1.2131      2.00000
     38      -1.2070      2.00000
     39      -1.1567      2.00000
     40      -1.0886      2.00000
     41      -0.9681      2.00000
     42      -0.9043      2.00000
     43      -0.8881      2.00000
     44       0.5436      2.00000
     45       2.7566      0.00000
     46       2.7922      0.00000
     47       2.8622      0.00000
     48       4.7190      0.00000
     49       5.7298      0.00000
     50       6.0746      0.00000
     51       6.2774      0.00000
     52       6.4619      0.00000
     53       6.4910      0.00000
     54       6.5042      0.00000
     55       6.5324      0.00000
     56       6.7856      0.00000

[...]

 k-point    10 :      -0.3333   -0.3333    0.3333
  band No.  band energies     occupation
      1     -20.8858      2.00000
      2     -20.8849      2.00000
      3     -16.4125      2.00000
      4     -16.4098      2.00000
      5     -16.3655      2.00000
      6     -16.3633      2.00000
      7     -16.2698      2.00000
      8     -16.2692      2.00000
      9     -16.2683      2.00000
     10     -16.2676      2.00000
     11     -16.2595      2.00000
     12     -16.2587      2.00000
     13     -14.1801      2.00000
     14     -14.1451      2.00000
     15     -13.9977      2.00000
     16     -13.9446      2.00000
     17     -13.8262      2.00000
     18     -13.7953      2.00000
     19      -7.4767      2.00000
     20      -7.4476      2.00000
     21      -7.2912      2.00000
     22      -7.2765      2.00000
     23      -7.2605      2.00000
     24      -7.2514      2.00000
     25      -7.2425      2.00000
     26      -7.2125      2.00000
     27      -3.1256      2.00000
     28      -2.8323      2.00000
     29      -2.7732      2.00000
     30      -2.2560      2.00000
     31      -2.1466      2.00000
     32      -2.0234      2.00000
     33      -1.7008      2.00000
     34      -1.5961      2.00000
     35      -1.5233      2.00000
     36      -1.3578      2.00000
     37      -1.3236      2.00000
     38      -1.3041      2.00000
     39      -1.2370      2.00000
     40      -1.1595      2.00000
     41      -1.1381      2.00000
     42      -0.9514      2.00000
     43      -0.7027      2.00000
     44      -0.6011      2.00000
     45       3.3688      0.00000
     46       3.9800      0.00000
     47       4.1495      0.00000
     48       5.0578      0.00000
     49       5.4099      0.00000
     50       5.8519      0.00000
     51       6.2557      0.00000
     52       6.3459      0.00000
     53       6.7303      0.00000
     54       6.7582      0.00000
     55       7.1080      0.00000
     56       7.1766      0.00000

 soft charge-density along one line, spin component           1
         0         1         2         3         4         5         6         7         8         9
 total charge-density along one line

------------------------ aborting loop because EDIFF is reached ----------------------------------------

 total charge

# of ion       s       p       d       tot
    1        1.784   4.718   0.016   6.519
    2        1.784   4.718   0.016   6.519
    3        1.553   0.426   9.834  11.813
    4        1.552   0.426   9.834  11.812
    5        1.614   3.284   0.006   4.905
    6        1.614   3.284   0.006   4.905
    7        1.614   3.284   0.006   4.905
    8        1.614   3.284   0.006   4.905
    9        1.614   3.283   0.006   4.904
   10        1.614   3.283   0.006   4.904
tot         16.360  29.990  19.739  66.089

  FORCE on cell =-STRESS in cart. coord.  units (eV):
  Direction    XX          YY          ZZ          XY          YZ          ZX
  Alpha Z   223.08133   223.08133   223.08133
  Ewald   -1522.60403 -1536.26786 -1536.20419    -0.00000   -47.05883    -0.00000
  Hartree   631.92768   610.80848   606.79626     0.00000   -26.95416    -0.00000
  E(xc)    -369.47798  -369.44904  -369.43658    -0.01079    -0.04370    -0.02963
  Local    -741.77405  -707.11632  -703.13833    -0.00030    73.46575     0.00030
  n-local   450.20756   450.12880   450.11684     0.04526    -0.32339     0.05782
  augment   203.19408   203.10264   203.08670    -0.00088    -0.19113     0.00105
  Kinetic  1125.02419  1125.33605  1125.35478    -0.31538     1.03505    -1.06100
  Fock        0.00000     0.00000     0.00000     0.00000     0.00000     0.00000
  Total      -0.42122    -0.37592    -0.34317    -0.00000    -0.07042     0.00000
  in kB      -1.66902    -1.48955    -1.35979    -0.00000    -0.27902     0.00000

 VOLUME and BASIS-vectors are now :
  energy-cutoff  :      300.00
  volume of cell :      404.35
      direct lattice vectors                 reciprocal lattice vectors
     5.826644932  5.879883179 -0.069129645     0.085812677  0.086043611  0.085728465
     5.826644932  0.069343970 -5.901967398     0.085812677 -0.086043611 -0.085728465
     0.000000000  5.949227149 -5.971097044    -0.085812677  0.084051292 -0.083729969

  length of vectors
     8.278139662  8.293842229  8.428956257     0.148716805  0.148716805  0.146421115

 FORCES acting on ions
    electron-ion (+dipol)            ewald-force                    non-local-force                 convergence-correction
   0.393E-04 -.132E+02 0.996E+01   0.550E-11 0.131E+02 -.985E+01   -.867E-18 0.148E+00 -.118E+00   -.128E-08 -.856E-04 -.361E-04
   -.393E-04 0.132E+02 -.996E+01   -.551E-11 -.131E+02 0.985E+01   0.867E-18 -.148E+00 0.118E+00   0.128E-08 0.856E-04 0.361E-04
   -.379E-12 -.294E-12 0.333E-12   0.142E-13 0.746E-13 -.462E-13   0.000E+00 0.265E-22 0.000E+00   -.382E-13 -.724E-14 0.148E-13
   -.198E-11 -.842E-12 0.452E-11   -.142E-13 -.107E-13 0.195E-13   0.000E+00 0.000E+00 0.000E+00   -.651E-13 -.265E-13 0.999E-14
   0.190E+02 -.285E-05 0.311E-05   -.193E+02 -.187E-11 -.378E-11   0.226E+00 -.139E-16 -.347E-16   -.594E-05 0.752E-09 0.167E-08
   -.190E+02 0.285E-05 -.311E-05   0.193E+02 0.180E-11 0.378E-11   -.226E+00 0.139E-16 0.347E-16   0.594E-05 -.752E-09 -.167E-08
   -.142E+02 0.129E-05 -.535E-05   0.144E+02 0.000E+00 0.178E-13   -.188E+00 0.347E-17 0.347E-16   0.355E-04 0.206E-08 0.564E-09
   0.142E+02 -.129E-05 0.535E-05   -.144E+02 -.235E-13 0.115E-13   0.188E+00 -.347E-17 -.312E-16   -.355E-04 -.206E-08 -.564E-09
   0.989E-05 -.293E+02 0.280E+02   0.140E-13 0.295E+02 -.282E+02   -.434E-18 -.187E+00 0.174E+00   -.263E-08 -.108E-04 0.470E-04
   -.989E-05 0.293E+02 -.280E+02   0.177E-13 -.295E+02 0.282E+02   0.434E-18 0.187E+00 -.174E+00   0.263E-08 0.108E-04 -.470E-04
   -.115E-11 -.939E-11 0.800E-11   0.686E-14 -.711E-14 0.000E+00   -.278E-16 -.278E-16 0.000E+00   -.115E-12 -.151E-13 0.212E-13

 POSITION                                       TOTAL-FORCE (eV/Angst)
      8.73997      8.85414     -8.90680         0.000000      0.004923     -0.005096
      2.91332      3.04431     -3.03539         0.000000     -0.004923      0.005096
      0.00000      0.00000     -0.00000         0.000000     -0.000000      0.000000
      5.82664      5.94923     -5.97110         0.000000      0.000000      0.000000
      5.29063      3.00929     -5.93653         0.009839      0.000000     -0.000000
      6.36266      8.88917     -6.00566        -0.009839      0.000000      0.000000
      6.30206      5.98390     -8.92208        -0.002680      0.000000      0.000000
      5.35123      5.91456     -3.02011         0.002680     -0.000000     -0.000000
      2.91332      6.45261     -6.40055        -0.000000      0.011042      0.007510
      8.73997      5.44585     -5.54164         0.000000     -0.011042     -0.007510
    total drift:                               -0.000000     -0.000000      0.000000

  FREE ENERGIE OF THE ION-ELECTRON SYSTEM (eV)
  free  energy   TOTEN  =      -357.41408846 eV

  energy  without entropy=     -357.41408846  energy(sigma->0) =     -357.41408846

 stress matrix after NEB project (eV)
     -0.42122     -0.00000      0.00000
     -0.00000     -0.37592     -0.07042
      0.00000     -0.07042     -0.34317
  FORCES: max atom, RMS     0.013353    0.008155
  FORCE total and by dimension    0.025788    0.011042
  Stress total and by dimension    0.668151    0.421215

 total charge

# of ion       s       p       d       tot
    1        1.784   4.718   0.016   6.519
    2        1.784   4.718   0.016   6.519
    3        1.553   0.426   9.834  11.813
    4        1.552   0.426   9.834  11.812
    5        1.614   3.284   0.006   4.905
    6        1.614   3.284   0.006   4.905
    7        1.614   3.284   0.006   4.905
    8        1.614   3.284   0.006   4.905
    9        1.614   3.283   0.006   4.904
   10        1.614   3.283   0.006   4.904
tot         16.360  29.990  19.739  66.089