 vasp.5.4.4.18Apr17-6-g9f103f2a35 (build Jun 22 2020 09:27:21) complex

 INCAR:
 POTCAR:    PAW_PBE Cs_sv 08Apr2002
 POTCAR:    PAW_PBE Pb_d 06Sep2000
 POTCAR:    PAW_PBE Br 06Sep2000
 POTCAR:    PAW_PBE Cs_sv 08Apr2002
   VRHFIN =Cs: 5s5p6s

   TITEL  = PAW_PBE Cs_sv 08Apr2002
   POMASS =  132.900; ZVAL   =    9.000    mass and valenz
   ENMAX  =  220.318; ENMIN  =  165.238 eV

   TITEL  = PAW_PBE Pb_d 06Sep2000
   POMASS =  207.200; ZVAL   =   14.000    mass and valenz
   ENMAX  =  237.835; ENMIN  =  178.376 eV

   TITEL  = PAW_PBE Br 06Sep2000
   POMASS =   79.904; ZVAL   =    7.000    mass and valenz
   ENMAX  =  216.285; ENMIN  =  162.214 eV

 Optimization of the real space projectors (new method)

 maximal supplied QI-value         = 15.12
 optimisation between [QCUT,QGAM] = [  8.77, 17.69] = [ 21.53, 87.61] Ry
 Optimized for a Real-space Cutoff    1.85 Angstroem

   l    n(q)    QCUT    max X(q) W(low)/X(q) W(high)/X(q)  e(spline)
   0     10     8.768    25.322    0.81E-04    0.51E-04    0.48E-06
   0     10     8.768    99.187    0.78E-04    0.50E-04    0.47E-06
   1      9     8.768    11.761    0.21E-03    0.20E-03    0.37E-06
   1      9     8.768     8.275    0.24E-03    0.22E-03    0.41E-06
   2      9     8.768     3.829    0.23E-04    0.15E-03    0.18E-06
 Optimization of the real space projectors (new method)

[...]

   l    n(q)    QCUT    max X(q) W(low)/X(q) W(high)/X(q)  e(spline)
   2      7     8.768     3.846    0.48E-04    0.11E-03    0.11E-06
   2      7     8.768     8.593    0.20E-03    0.22E-04    0.24E-06
   0      8     8.768    20.082    0.68E-04    0.88E-04    0.41E-07
   0      8     8.768     8.597    0.89E-04    0.13E-03    0.59E-07
   1      8     8.768    33.223    0.15E-03    0.53E-04    0.87E-07
   1      8     8.768    15.899    0.14E-03    0.44E-04    0.78E-07
 Optimization of the real space projectors (new method)

 maximal supplied QI-value         = 17.95
 optimisation between [QCUT,QGAM] = [  8.80, 17.59] = [ 21.67, 86.68] Ry
 Optimized for a Real-space Cutoff    1.59 Angstroem

   l    n(q)    QCUT    max X(q) W(low)/X(q) W(high)/X(q)  e(spline)
   0      8     8.797   175.082    0.82E-04    0.14E-03    0.89E-07
   0      8     8.797   174.004    0.79E-04    0.14E-03    0.86E-07
   1      8     8.797    54.315    0.16E-03    0.14E-04    0.30E-06
   1      8     8.797    42.441    0.16E-03    0.14E-04    0.30E-06
   2      7     8.797     3.596    0.92E-04    0.15E-03    0.85E-07
  PAW_PBE Cs_sv 08Apr2002               :
  PAW_PBE Pb_d 06Sep2000                :
  PAW_PBE Br 06Sep2000                  :

 POSCAR: Cs8 Pb8 Br24
  positions in direct lattice

 METAGGA = SCAN     LMAXTAU =  6    LMIXTAU =  F

 VTST: version 3.2, (02/03/18)

 CHAIN: initializing optimizer

 OPT: Using VASP Conjugate-Gradient optimizer
 CHAIN: Read ICHAIN            0

 POSCAR: Cs8 Pb8 Br24
  positions in direct lattice

 ion  position               nearest neighbor table
   1  0.250  0.250  0.250-  29 2.90  35 2.97  36 2.97
   2  0.250  0.250  0.750-  28 2.90  33 2.97  34 2.97
   3  0.250  0.750  0.250-  25 2.90  24 2.97  23 2.97
   4  0.250  0.750  0.750-  32 2.90  20 2.97  19 2.97
   5  0.750  0.250  0.250-  31 2.90  18 2.97  17 2.97
   6  0.750  0.250  0.750-  26 2.90  22 2.97  21 2.97
   7  0.750  0.750  0.250-  27 2.90  37 2.97  38 2.97
   8  0.750  0.750  0.750-  30 2.90  39 2.97  40 2.97
   9  0.000  0.000  0.000-  17 3.16  19 3.16  33 3.16  37 3.16  25 3.19  26 3.19
  10  0.000  0.000  0.500-  18 3.16  20 3.16  34 3.16  38 3.16  25 3.19  26 3.19
  11  0.000  0.500  0.000-  17 3.16  19 3.16  35 3.16  39 3.16  27 3.19  28 3.19
  12  0.000  0.500  0.500-  18 3.16  20 3.16  36 3.16  40 3.16  27 3.19  28 3.19
  13  0.500  0.000  0.000-  21 3.16  23 3.16  33 3.16  37 3.16  29 3.19  30 3.19
  14  0.500  0.000  0.500-  22 3.16  24 3.16  34 3.16  38 3.16  29 3.19  30 3.19
  15  0.500  0.500  0.000-  21 3.16  23 3.16  35 3.16  39 3.16  31 3.19  32 3.19
  16  0.500  0.500  0.500-  22 3.16  24 3.16  36 3.16  40 3.16  31 3.19  32 3.19
  17  0.932  0.250  0.075-   5 2.97   9 3.16  11 3.16
  18  0.932  0.250  0.425-   5 2.97  10 3.16  12 3.16
  19  0.068  0.750  0.925-   4 2.97   9 3.16  11 3.16
  20  0.068  0.750  0.575-   4 2.97  10 3.16  12 3.16
  21  0.568  0.250  0.925-   6 2.97  13 3.16  15 3.16
  22  0.568  0.250  0.575-   6 2.97  14 3.16  16 3.16
  23  0.432  0.750  0.075-   3 2.97  13 3.16  15 3.16
  24  0.432  0.750  0.425-   3 2.97  14 3.16  16 3.16
  25  0.075  0.925  0.250-   3 2.90   9 3.19  10 3.19
  26  0.925  0.075  0.750-   6 2.90   9 3.19  10 3.19
  27  0.925  0.575  0.250-   7 2.90  11 3.19  12 3.19
  28  0.075  0.425  0.750-   2 2.90  11 3.19  12 3.19
  29  0.425  0.075  0.250-   1 2.90  13 3.19  14 3.19
  30  0.575  0.925  0.750-   8 2.90  13 3.19  14 3.19
  31  0.575  0.425  0.250-   5 2.90  15 3.19  16 3.19
  32  0.425  0.575  0.750-   4 2.90  15 3.19  16 3.19
  33  0.250  0.068  0.925-   2 2.97   9 3.16  13 3.16
  34  0.250  0.068  0.575-   2 2.97  10 3.16  14 3.16
  35  0.250  0.432  0.075-   1 2.97  11 3.16  15 3.16
  36  0.250  0.432  0.425-   1 2.97  12 3.16  16 3.16
  37  0.750  0.932  0.075-   7 2.97   9 3.16  13 3.16
  38  0.750  0.932  0.425-   7 2.97  10 3.16  14 3.16
  39  0.750  0.568  0.925-   8 2.97  11 3.16  15 3.16
  40  0.750  0.568  0.575-   8 2.97  12 3.16  16 3.16

  LATTYP: Found a simple cubic cell.
 ALAT       =    11.7353520000

  Lattice vectors:

 A1 = (  11.7353520000,   0.0000000000,   0.0000000000)
 A2 = (   0.0000000000,  11.7353520000,   0.0000000000)
 A3 = (   0.0000000000,   0.0000000000,  11.7353520000)

Analysis of symmetry for initial positions (statically):
 Subroutine PRICEL returns following result:

  LATTYP: Found a simple tetragonal cell.
 ALAT       =     8.2981469788
 C/A-ratio  =     1.4142135624

[...]

   2 primitive cells build up your supercell.

 Routine SETGRP: Setting up the symmetry group for a
 simple cubic supercell.

 Subroutine GETGRP returns: Found  8 space group operations
 (whereof  2 operations were pure point group operations)
 out of a pool of 48 trial point group operations.

The static configuration has the point symmetry S_2 .
 The point group associated with its full space group is D_2h.

Analysis of symmetry for dynamics (positions and initial velocities):
 Subroutine PRICEL returns following result:

  LATTYP: Found a simple tetragonal cell.
 ALAT       =     8.2981469788
 C/A-ratio  =     1.4142135624

  Lattice vectors:

 A1 = (   5.8676760000,  -5.8676760000,   0.0000000000)
 A2 = (  -5.8676760000,  -5.8676760000,   0.0000000000)
 A3 = (   0.0000000000,   0.0000000000, -11.7353520000)

   2 primitive cells build up your supercell.

 Routine SETGRP: Setting up the symmetry group for a
 simple cubic supercell.

 Subroutine GETGRP returns: Found  8 space group operations
 (whereof  2 operations were pure point group operations)
 out of a pool of 48 trial point group operations.

The dynamic configuration has the point symmetry S_2 .
 The point group associated with its full space group is D_2h.

 Subroutine INISYM returns: Found  8 space group operations
 (whereof  2 operations are pure point group operations),
 and found     2 'primitive' translations

 KPOINTS: 1x1x1

Automatic generation of k-mesh.
Space group operators:
 irot       det(A)        alpha          n_x          n_y          n_z        tau_x        tau_y        tau_z
    1     1.000000     0.000000     1.000000     0.000000     0.000000    -0.000000    -0.000000    -0.000000
    2    -1.000000     0.000000     1.000000     0.000000     0.000000    -0.000000    -0.000000    -0.000000
    3     1.000000   180.000000     0.000000     0.000000     1.000000    -0.000000    -0.000000    -0.500000
    4    -1.000000   180.000000     0.000000     0.000000     1.000000    -0.000000    -0.000000    -0.500000
    5     1.000000   180.000000     0.707107     0.707107     0.000000     0.000000    -0.500000    -0.500000
    6    -1.000000   180.000000     0.707107     0.707107     0.000000     0.000000    -0.500000    -0.500000
    7     1.000000   180.000000     0.707107    -0.707107     0.000000     0.000000    -0.500000    -0.000000
    8    -1.000000   180.000000     0.707107    -0.707107     0.000000     0.000000    -0.500000    -0.000000

 Subroutine IBZKPT returns following result:

 Found      6 irreducible k-points:

 Following reciprocal coordinates:
            Coordinates               Weight
  0.000000  0.000000  0.000000      1.000000
  0.500000  0.000000  0.000000      2.000000
  0.500000  0.500000  0.000000      1.000000
  0.000000  0.000000  0.500000      1.000000
  0.500000  0.000000  0.500000      2.000000
  0.500000  0.500000  0.500000      1.000000

 Following cartesian coordinates:
            Coordinates               Weight
  0.000000  0.000000  0.000000      1.000000
  0.042606  0.000000  0.000000      2.000000
  0.042606  0.042606  0.000000      1.000000
  0.000000  0.000000  0.042606      1.000000
  0.042606  0.000000  0.042606      2.000000
  0.042606  0.042606  0.042606      1.000000

 SYSTEM =  CsPbBr3 cubic bulk
 POSCAR =  Cs8 Pb8 Br24

 Startparameter for this run:
   NWRITE =      2    write-flag & timer
   PREC   = accura    normal or accurate (medium, high low for compatibility)
   ISTART =      0    job   : 0-new  1-cont  2-samecut
   ICHARG =      2    charge: 1-file 2-atom 10-const
   ISPIN  =      1    spin polarized calculation?
   LNONCOLLINEAR =      F non collinear calculations
   LSORBIT =      F    spin-orbit coupling
   INIWAV =      1    electr: 0-lowe 1-rand  2-diag
   LASPH  =      T    aspherical Exc in radial PAW
   METAGGA=      F    non-selfconsistent MetaGGA calc.

 Electronic Relaxation 1
   ENCUT  =  300.0 eV  22.05 Ry    4.70 a.u.  16.57 16.57 16.57*2*pi/ulx,y,z
   ENINI  =  300.0     initial cutoff
   ENAUG  =  503.9 eV  augmentation charge cutoff
   NELM   =    200;   NELMIN=  2; NELMDL= -5     # of ELM steps
   EDIFF  = 0.1E-05   stopping-criterion for ELM
   LREAL  =      T    real-space projection
   NLSPLINE    = F    spline interpolate recip. space projectors
   LCOMPAT=      F    compatible to vasp.4.4
   GGA_COMPAT  = T    GGA compatible to vasp.4.4-vasp.4.6
   LMAXPAW     = -100 max onsite density
   LMAXMIX     =    2 max onsite mixed and CHGCAR
   VOSKOWN=      0    Vosko Wilk Nusair interpolation
   ROPT   =   -0.00025  -0.00025  -0.00025
 Ionic relaxation
   EDIFFG = -.1E-01   stopping-criterion for IOM
   NSW    =      0    number of steps for IOM
   NBLOCK =      1;   KBLOCK =      1    inner block; outer block
   IBRION =     -1    ionic relax: 0-MD 1-quasi-New 2-CG
   NFREE  =      1    steps in history (QN), initial steepest desc. (CG)
   ISIF   =      3    stress and relaxation
   IWAVPR =     10    prediction:  0-non 1-charg 2-wave 3-comb
   ISYM   =      2    0-nonsym 1-usesym 2-fastsym
   LCORR  =      T    Harris-Foulkes like correction to forces

   POTIM  = 0.5000    time-step for ionic-motion
   TEIN   =    0.0    initial temperature
   TEBEG  =    0.0;   TEEND  =   0.0 temperature during run
   SMASS  =  -3.00    Nose mass-parameter (am)
   estimated Nose-frequenzy (Omega)   =  0.10E-29 period in steps =****** mass=  -0.315E-26a.u.
[...]
     23     -16.9739      2.00000
     24     -16.9739      2.00000
     25     -16.9404      2.00000
     26     -16.9404      2.00000
     27     -16.9404      2.00000
     28     -16.9404      2.00000
     29     -16.9404      2.00000
     30     -16.9404      2.00000
     31     -16.9404      2.00000
     32     -16.9404      2.00000
     33     -16.9247      2.00000
     34     -16.9247      2.00000
     35     -16.9247      2.00000
     36     -16.9247      2.00000
     37     -16.9247      2.00000
     38     -16.9247      2.00000
     39     -16.9247      2.00000
     40     -16.9247      2.00000
     41     -16.9236      2.00000
     42     -16.9236      2.00000
     43     -16.9236      2.00000
     44     -16.9236      2.00000
     45     -16.9236      2.00000
     46     -16.9236      2.00000
     47     -16.9236      2.00000
     48     -16.9236      2.00000
     49     -14.2605      2.00000
     50     -14.2605      2.00000
     51     -14.2191      2.00000
     52     -14.2191      2.00000
     53     -14.1838      2.00000
     54     -14.1838      2.00000
     55     -14.1838      2.00000
     56     -14.1838      2.00000
     57     -14.0933      2.00000
     58     -14.0933      2.00000
     59     -14.0897      2.00000
     60     -14.0897      2.00000
[...]
    202       6.2270      0.00000
    203       6.2473      0.00000
    204       6.2473      0.00000
    205       6.4477      0.00000
    206       6.4477      0.00000
    207       6.4477      0.00000
    208       6.4477      0.00000
    209       6.4929      0.00000
    210       6.4929      0.00000
    211       6.6308      0.00000
    212       6.6308      0.00000
    213       6.6308      0.00000
    214       6.6308      0.00000
    215       6.9942      0.00000
    216       6.9982      0.00000

 soft charge-density along one line, spin component           1
         0         1         2         3         4         5         6         7         8         9
 total charge-density along one line

------------------------ aborting loop because EDIFF is reached ----------------------------------------

 total charge

# of ion       s       p       d       tot
    1        1.814   4.727   0.082   6.622
    2        1.814   4.727   0.082   6.622
    3        1.814   4.726   0.082   6.621
    4        1.814   4.726   0.082   6.621
    5        1.814   4.726   0.082   6.621
    6        1.814   4.726   0.082   6.621
    7        1.814   4.727   0.082   6.622
    8        1.814   4.727   0.082   6.622
    9        1.551   0.353   9.820  11.724
   10        1.551   0.353   9.820  11.724
   11        1.551   0.353   9.820  11.725
   12        1.551   0.353   9.820  11.725
   13        1.551   0.353   9.820  11.725
   14        1.551   0.353   9.820  11.725
   15        1.551   0.353   9.820  11.724
   16        1.551   0.353   9.820  11.724
   17        1.617   3.297   0.006   4.920
   18        1.617   3.297   0.006   4.920
   19        1.617   3.297   0.006   4.920
   20        1.617   3.297   0.006   4.920
   21        1.617   3.297   0.006   4.920
   22        1.617   3.297   0.006   4.920
   23        1.617   3.297   0.006   4.920
   24        1.617   3.297   0.006   4.920
   25        1.618   3.293   0.007   4.918
   26        1.618   3.293   0.007   4.918
   27        1.618   3.293   0.007   4.918
   28        1.618   3.293   0.007   4.918
   29        1.618   3.293   0.007   4.918
   30        1.618   3.293   0.007   4.918
   31        1.618   3.293   0.007   4.918
   32        1.618   3.293   0.007   4.918
   33        1.617   3.282   0.006   4.906
   34        1.617   3.282   0.006   4.906
   35        1.617   3.282   0.006   4.906
   36        1.617   3.282   0.006   4.906
   37        1.617   3.282   0.006   4.906
   38        1.617   3.282   0.006   4.906
   39        1.617   3.282   0.006   4.906
   40        1.617   3.282   0.006   4.906
tot         65.735 119.610  79.371 264.717

  FORCE on cell =-STRESS in cart. coord.  units (eV):
  Direction    XX          YY          ZZ          XY          YZ          ZX
  Alpha Z   892.99476   892.99476   892.99476
  Ewald   -6235.84472 -6235.84472 -6255.28979  -661.61440    -0.00000     0.00000
  Hartree  2327.06110  2327.06110  2363.15105  -335.04646    -0.00000    -0.00000
  E(xc)   -1478.92914 -1478.83312 -1479.12634    -1.24214     0.00002     0.00002
  Local   -2608.73511 -2608.73511 -2629.02839   985.64110    -0.00000    -0.00000
  n-local  1788.89263  1789.83953  1787.50562    -2.46587     0.00002     0.00002
  augment   815.12108   815.12108   815.03942    -0.77123     0.00001     0.00001
  Kinetic  4517.34108  4522.48526  4518.44724    -8.14011    -0.00000     0.00000
  Fock        0.00000     0.00000     0.00000     0.00000     0.00000     0.00000
  Total      20.99524    20.99524    13.69359   -23.63914     0.00000     0.00000
  in kB      20.81341    20.81341    13.57499   -23.43440     0.00000     0.00000

 VOLUME and BASIS-vectors are now :
  energy-cutoff  :      300.00
  volume of cell :     1616.17
      direct lattice vectors                 reciprocal lattice vectors
    11.735352000  0.000000000  0.000000000     0.085212612  0.000000000  0.000000000
     0.000000000 11.735352000  0.000000000     0.000000000  0.085212612  0.000000000
     0.000000000  0.000000000 11.735352000     0.000000000  0.000000000  0.085212612

  length of vectors
    11.735352000 11.735352000 11.735352000     0.085212612  0.085212612  0.085212612

 FORCES acting on ions
    electron-ion (+dipol)            ewald-force                    non-local-force                 convergence-correction
   0.315E+02 0.301E+02 -.472E-08   -.321E+02 -.302E+02 -.888E-15   -.113E+01 -.940E+00 0.121E-22   0.671E-04 -.456E-04 0.154E-12
   -.315E+02 -.301E+02 0.472E-08   0.321E+02 0.302E+02 0.178E-13   0.113E+01 0.940E+00 -.124E-22   -.671E-04 0.456E-04 -.104E-12
   0.301E+02 0.315E+02 -.472E-08   -.302E+02 -.321E+02 -.888E-15   -.940E+00 -.113E+01 0.115E-22   -.456E-04 0.671E-04 0.212E-12
   -.301E+02 -.315E+02 0.472E-08   0.302E+02 0.321E+02 -.622E-14   0.940E+00 0.113E+01 -.116E-22   0.456E-04 -.671E-04 -.166E-12
   0.301E+02 0.315E+02 -.472E-08   -.302E+02 -.321E+02 -.533E-14   -.940E+00 -.113E+01 -.192E-23   -.456E-04 0.671E-04 0.215E-12
   -.301E+02 -.315E+02 0.472E-08   0.302E+02 0.321E+02 -.355E-14   0.940E+00 0.113E+01 -.833E-23   0.456E-04 -.671E-04 -.161E-12
   0.315E+02 0.301E+02 -.472E-08   -.321E+02 -.302E+02 -.107E-13   -.113E+01 -.940E+00 -.251E-23   0.671E-04 -.456E-04 0.251E-12
   -.315E+02 -.301E+02 0.472E-08   0.321E+02 0.302E+02 0.142E-13   0.113E+01 0.940E+00 0.129E-23   -.671E-04 0.456E-04 -.205E-12
   -.128E-13 0.626E-13 0.738E-13   0.178E-14 0.444E-14 0.133E-13   0.000E+00 0.000E+00 -.215E-23   0.295E-13 0.190E-12 -.264E-12
   0.968E-13 0.757E-13 0.106E-11   -.213E-13 0.409E-13 0.622E-14   0.000E+00 0.000E+00 0.378E-23   0.595E-13 0.184E-13 -.135E-12
   0.690E-13 0.132E-11 0.873E-13   -.604E-13 0.400E-13 0.302E-13   0.000E+00 0.000E+00 -.310E-23   -.144E-13 -.142E-12 -.316E-12
   0.348E-13 0.120E-11 0.102E-11   0.142E-13 0.426E-13 -.284E-13   0.000E+00 0.000E+00 -.542E-24   -.218E-12 0.409E-13 -.824E-13
   0.182E-11 -.234E-12 0.668E-11   -.346E-13 0.480E-13 0.266E-13   0.000E+00 0.000E+00 -.183E-23   0.423E-13 0.261E-12 -.445E-13
   -.177E-11 0.234E-11 -.753E-11   -.107E-13 0.231E-13 -.187E-13   0.000E+00 0.000E+00 -.330E-23   0.152E-13 0.286E-12 -.310E-12
   0.240E-11 -.362E-11 -.113E-12   0.711E-14 -.169E-13 0.124E-13   0.000E+00 0.000E+00 0.375E-23   0.959E-13 -.211E-12 -.285E-12
   0.183E-11 -.254E-11 -.107E-11   -.142E-13 0.497E-13 0.000E+00   0.000E+00 0.000E+00 0.415E-23   0.299E-12 -.228E-12 -.989E-13
   0.437E+01 0.125E+01 -.380E+01   -.449E+01 -.124E+01 0.398E+01   0.153E+01 0.176E-01 -.158E+01   -.628E-04 0.111E-05 0.548E-04
   0.437E+01 0.125E+01 0.380E+01   -.449E+01 -.124E+01 -.398E+01   0.153E+01 0.176E-01 0.158E+01   -.628E-04 0.111E-05 -.548E-04
   -.437E+01 -.125E+01 0.380E+01   0.449E+01 0.124E+01 -.398E+01   -.153E+01 -.176E-01 0.158E+01   0.628E-04 -.111E-05 -.548E-04
   -.437E+01 -.125E+01 -.380E+01   0.449E+01 0.124E+01 0.398E+01   -.153E+01 -.176E-01 -.158E+01   0.628E-04 -.111E-05 0.548E-04
   -.437E+01 -.125E+01 0.380E+01   0.449E+01 0.124E+01 -.398E+01   -.153E+01 -.176E-01 0.158E+01   0.628E-04 -.111E-05 -.548E-04
   -.437E+01 -.125E+01 -.380E+01   0.449E+01 0.124E+01 0.398E+01   -.153E+01 -.176E-01 -.158E+01   0.628E-04 -.111E-05 0.548E-04
   0.437E+01 0.125E+01 -.380E+01   -.449E+01 -.124E+01 0.398E+01   0.153E+01 0.176E-01 -.158E+01   -.628E-04 0.111E-05 0.548E-04
   0.437E+01 0.125E+01 0.380E+01   -.449E+01 -.124E+01 -.398E+01   0.153E+01 0.176E-01 0.158E+01   -.628E-04 0.111E-05 -.548E-04
   -.939E+01 0.736E+00 0.343E-07   0.942E+01 -.850E+00 0.000E+00   -.172E+01 0.190E+01 0.468E-23   0.865E-04 -.113E-03 0.626E-12
   0.939E+01 -.736E+00 -.343E-07   -.942E+01 0.850E+00 0.888E-15   0.172E+01 -.190E+01 0.202E-23   -.865E-04 0.113E-03 -.485E-12
   0.736E+00 -.939E+01 0.343E-07   -.850E+00 0.942E+01 0.355E-14   0.190E+01 -.172E+01 -.346E-23   -.113E-03 0.865E-04 0.636E-12
   -.736E+00 0.939E+01 -.343E-07   0.850E+00 -.942E+01 0.533E-14   -.190E+01 0.172E+01 -.307E-23   0.113E-03 -.865E-04 -.460E-12
   0.736E+00 -.939E+01 0.343E-07   -.850E+00 0.942E+01 0.444E-14   0.190E+01 -.172E+01 -.299E-23   -.113E-03 0.865E-04 0.609E-12
   -.736E+00 0.939E+01 -.343E-07   0.850E+00 -.942E+01 0.888E-14   -.190E+01 0.172E+01 -.292E-23   0.113E-03 -.865E-04 -.522E-12
   -.939E+01 0.736E+00 0.343E-07   0.942E+01 -.850E+00 -.355E-14   -.172E+01 0.190E+01 -.171E-23   0.865E-04 -.113E-03 0.692E-12
   0.939E+01 -.736E+00 -.343E-07   -.942E+01 0.850E+00 0.000E+00   0.172E+01 -.190E+01 0.356E-23   -.865E-04 0.113E-03 -.551E-12
   -.125E+01 -.437E+01 0.380E+01   0.124E+01 0.449E+01 -.398E+01   -.176E-01 -.153E+01 0.158E+01   -.111E-05 0.628E-04 -.548E-04
   -.125E+01 -.437E+01 -.380E+01   0.124E+01 0.449E+01 0.398E+01   -.176E-01 -.153E+01 -.158E+01   -.111E-05 0.628E-04 0.548E-04
   0.125E+01 0.437E+01 -.380E+01   -.124E+01 -.449E+01 0.398E+01   0.176E-01 0.153E+01 -.158E+01   0.111E-05 -.628E-04 0.548E-04
   0.125E+01 0.437E+01 0.380E+01   -.124E+01 -.449E+01 -.398E+01   0.176E-01 0.153E+01 0.158E+01   0.111E-05 -.628E-04 -.548E-04
   0.125E+01 0.437E+01 -.380E+01   -.124E+01 -.449E+01 0.398E+01   0.176E-01 0.153E+01 -.158E+01   0.111E-05 -.628E-04 0.548E-04
   0.125E+01 0.437E+01 0.380E+01   -.124E+01 -.449E+01 -.398E+01   0.176E-01 0.153E+01 0.158E+01   0.111E-05 -.628E-04 -.548E-04
   -.125E+01 -.437E+01 0.380E+01   0.124E+01 0.449E+01 -.398E+01   -.176E-01 -.153E+01 0.158E+01   -.111E-05 0.628E-04 -.548E-04
   -.125E+01 -.437E+01 -.380E+01   0.124E+01 0.449E+01 0.398E+01   -.176E-01 -.153E+01 -.158E+01   -.111E-05 0.628E-04 0.548E-04
   0.303E-11 0.401E-11 0.273E-10   -.194E-12 0.853E-13 0.577E-14   0.212E-15 -.888E-15 -.444E-15   0.336E-12 0.282E-12 -.131E-11

 POSITION                                       TOTAL-FORCE (eV/Angst)
      2.93384      2.93384      2.93384        -1.674076     -1.009789     -0.000000
      2.93384      2.93384      8.80151         1.674076      1.009789     -0.000000
      2.93384      8.80151      2.93384        -1.009789     -1.674076     -0.000000
      2.93384      8.80151      8.80151         1.009789      1.674076     -0.000000
      8.80151      2.93384      2.93384        -1.009789     -1.674076     -0.000000
      8.80151      2.93384      8.80151         1.009789      1.674076     -0.000000
      8.80151      8.80151      2.93384        -1.674076     -1.009789     -0.000000
      8.80151      8.80151      8.80151         1.674076      1.009789     -0.000000
      0.00000      0.00000      0.00000         0.000000      0.000000     -0.000000
      0.00000      0.00000      5.86768         0.000000      0.000000     -0.000000
      0.00000      5.86768      0.00000         0.000000      0.000000     -0.000000
      0.00000      5.86768      5.86768         0.000000      0.000000     -0.000000
      5.86768      0.00000      0.00000         0.000000      0.000000     -0.000000
      5.86768      0.00000      5.86768         0.000000      0.000000     -0.000000
      5.86768      5.86768      0.00000         0.000000      0.000000     -0.000000
      5.86768      5.86768      5.86768         0.000000      0.000000     -0.000000
     10.94322      2.93384      0.88015         1.445415      0.022918     -1.442316
     10.94322      2.93384      4.98752         1.445415      0.022918      1.442316
      0.79214      8.80151     10.85520        -1.445415     -0.022918      1.442316
      0.79214      8.80151      6.74783        -1.445415     -0.022918     -1.442316
      6.65981      2.93384     10.85520        -1.445415     -0.022918      1.442316
      6.65981      2.93384      6.74783        -1.445415     -0.022918     -1.442316
      5.07554      8.80151      0.88015         1.445415      0.022918     -1.442316
      5.07554      8.80151      4.98752         1.445415      0.022918      1.442316
      0.88015     10.85520      2.93384        -1.719580      1.825668     -0.000000
     10.85520      0.88015      8.80151         1.719580     -1.825668     -0.000000
     10.85520      6.74783      2.93384         1.825668     -1.719580     -0.000000
      0.88015      4.98752      8.80151        -1.825668      1.719580     -0.000000
      4.98752      0.88015      2.93384         1.825668     -1.719580     -0.000000
      6.74783     10.85520      8.80151        -1.825668      1.719580     -0.000000
      6.74783      4.98752      2.93384        -1.719580      1.825668     -0.000000
      4.98752      6.74783      8.80151         1.719580     -1.825668     -0.000000
      2.93384      0.79214     10.85520        -0.022918     -1.445415      1.442316
      2.93384      0.79214      6.74783        -0.022918     -1.445415     -1.442316
      2.93384      5.07554      0.88015         0.022918      1.445415     -1.442316
      2.93384      5.07554      4.98752         0.022918      1.445415      1.442316
      8.80151     10.94322      0.88015         0.022918      1.445415     -1.442316
      8.80151     10.94322      4.98752         0.022918      1.445415      1.442316
      8.80151      6.65981     10.85520        -0.022918     -1.445415      1.442316
      8.80151      6.65981      6.74783        -0.022918     -1.445415     -1.442316
    total drift:                                0.000000      0.000000      0.000000

  FREE ENERGIE OF THE ION-ELECTRON SYSTEM (eV)
  free  energy   TOTEN  =     -1417.01555298 eV

  energy  without entropy=    -1417.01555298  energy(sigma->0) =    -1417.01555298

 stress matrix after NEB project (eV)
     20.99524    -23.63914      0.00000
    -23.63914     20.99524      0.00000
      0.00000      0.00000     13.69359
  FORCES: max atom, RMS     2.507991    1.921056
  FORCE total and by dimension   12.149823    1.825668
  Stress total and by dimension   46.762510   23.639136

 total charge

# of ion       s       p       d       tot
    1        1.814   4.727   0.082   6.622
    2        1.814   4.727   0.082   6.622
    3        1.814   4.726   0.082   6.621
    4        1.814   4.726   0.082   6.621
    5        1.814   4.726   0.082   6.621
    6        1.814   4.726   0.082   6.621
    7        1.814   4.727   0.082   6.622
    8        1.814   4.727   0.082   6.622
    9        1.551   0.353   9.820  11.724
   10        1.551   0.353   9.820  11.724
   11        1.551   0.353   9.820  11.725
   12        1.551   0.353   9.820  11.725
   13        1.551   0.353   9.820  11.725
   14        1.551   0.353   9.820  11.725
   15        1.551   0.353   9.820  11.724
   16        1.551   0.353   9.820  11.724
   17        1.617   3.297   0.006   4.920
   18        1.617   3.297   0.006   4.920
   19        1.617   3.297   0.006   4.920
   20        1.617   3.297   0.006   4.920
   21        1.617   3.297   0.006   4.920
   22        1.617   3.297   0.006   4.920
   23        1.617   3.297   0.006   4.920
   24        1.617   3.297   0.006   4.920
   25        1.618   3.293   0.007   4.918
   26        1.618   3.293   0.007   4.918
   27        1.618   3.293   0.007   4.918
   28        1.618   3.293   0.007   4.918
   29        1.618   3.293   0.007   4.918
   30        1.618   3.293   0.007   4.918
   31        1.618   3.293   0.007   4.918
   32        1.618   3.293   0.007   4.918
   33        1.617   3.282   0.006   4.906
   34        1.617   3.282   0.006   4.906
   35        1.617   3.282   0.006   4.906
   36        1.617   3.282   0.006   4.906
   37        1.617   3.282   0.006   4.906
   38        1.617   3.282   0.006   4.906
   39        1.617   3.282   0.006   4.906
   40        1.617   3.282   0.006   4.906
tot         65.735 119.610  79.371 264.717