 vasp.5.4.4.18Apr17-6-g9f103f2a35 (build Jun 22 2020 09:27:21) complex

 INCAR:
 POTCAR:    PAW_PBE Cs_sv 08Apr2002
 POTCAR:    PAW_PBE Pb_d 06Sep2000
 POTCAR:    PAW_PBE Br 06Sep2000
 POTCAR:    PAW_PBE Cs_sv 08Apr2002
   VRHFIN =Cs: 5s5p6s

   TITEL  = PAW_PBE Cs_sv 08Apr2002
   POMASS =  132.900; ZVAL   =    9.000    mass and valenz
   ENMAX  =  220.318; ENMIN  =  165.238 eV

 POTCAR:    PAW_PBE Pb_d 06Sep2000
   VRHFIN =Pb:

   TITEL  = PAW_PBE Pb_d 06Sep2000
   POMASS =  207.200; ZVAL   =   14.000    mass and valenz
   ENMAX  =  237.835; ENMIN  =  178.376 eV

 POTCAR:    PAW_PBE Br 06Sep2000
   VRHFIN =Br: s2p5

   TITEL  = PAW_PBE Br 06Sep2000
   POMASS =   79.904; ZVAL   =    7.000    mass and valenz
   ENMAX  =  216.285; ENMIN  =  162.214 eV

 Optimization of the real space projectors (new method)

 maximal supplied QI-value         = 15.12
 optimisation between [QCUT,QGAM] = [  8.77, 17.69] = [ 21.53, 87.61] Ry
 Optimized for a Real-space Cutoff    1.85 Angstroem

   l    n(q)    QCUT    max X(q) W(low)/X(q) W(high)/X(q)  e(spline)
   0     10     8.768    25.322    0.81E-04    0.51E-04    0.48E-06
   0     10     8.768    99.187    0.78E-04    0.50E-04    0.47E-06
   1      9     8.768    11.761    0.21E-03    0.20E-03    0.37E-06
   1      9     8.768     8.275    0.24E-03    0.22E-03    0.41E-06
   2      9     8.768     3.829    0.23E-04    0.15E-03    0.18E-06
 Optimization of the real space projectors (new method)

[...]

   l    n(q)    QCUT    max X(q) W(low)/X(q) W(high)/X(q)  e(spline)
   2      7     8.768     3.846    0.48E-04    0.11E-03    0.11E-06
   2      7     8.768     8.593    0.20E-03    0.22E-04    0.24E-06
   0      8     8.768    20.082    0.68E-04    0.88E-04    0.41E-07
   0      8     8.768     8.597    0.89E-04    0.13E-03    0.59E-07
   1      8     8.768    33.223    0.15E-03    0.53E-04    0.87E-07
   1      8     8.768    15.899    0.14E-03    0.44E-04    0.78E-07
 Optimization of the real space projectors (new method)

 maximal supplied QI-value         = 17.95
 optimisation between [QCUT,QGAM] = [  8.80, 17.59] = [ 21.67, 86.68] Ry
 Optimized for a Real-space Cutoff    1.59 Angstroem

   l    n(q)    QCUT    max X(q) W(low)/X(q) W(high)/X(q)  e(spline)
   0      8     8.797   175.082    0.82E-04    0.14E-03    0.89E-07
   0      8     8.797   174.004    0.79E-04    0.14E-03    0.86E-07
   1      8     8.797    54.315    0.16E-03    0.14E-04    0.30E-06
   1      8     8.797    42.441    0.16E-03    0.14E-04    0.30E-06
   2      7     8.797     3.596    0.92E-04    0.15E-03    0.85E-07
  PAW_PBE Cs_sv 08Apr2002               :
  PAW_PBE Pb_d 06Sep2000                :
  PAW_PBE Br 06Sep2000                  :

 POSCAR: Cs4 Pb4 Br12
  positions in direct lattice
  velocities in cartesian coordinates

 METAGGA = SCAN     LMAXTAU =  6    LMIXTAU =  F

 VTST: version 3.2, (02/03/18)

 CHAIN: initializing optimizer

 OPT: Using VASP Conjugate-Gradient optimizer
 CHAIN: Read ICHAIN            0

 POSCAR: Cs4 Pb4 Br12
  positions in direct lattice
  velocities in cartesian coordinates

 ion  position               nearest neighbor table
   1  0.519  0.981  0.750-
   2  0.481  0.019  0.250-
   3  0.021  0.479  0.750-
   4  0.979  0.521  0.250-
   5  0.000  0.000  0.000-  13 2.98  14 2.98  17 2.99  19 2.99   9 2.99  11 2.99
   6  0.000  0.000  0.500-  13 2.98  14 2.98  18 2.99  20 2.99  10 2.99  12 2.99
   7  0.500  0.500  0.000-  15 2.98  16 2.98  17 2.99  19 2.99   9 2.99  11 2.99
   8  0.500  0.500  0.500-  15 2.98  16 2.98  18 2.99  20 2.99  10 2.99  12 2.99
   9  0.791  0.291  0.000-   5 2.99   7 2.99
  10  0.791  0.291  0.500-   6 2.99   8 2.99
  11  0.209  0.709  0.000-   5 2.99   7 2.99
  12  0.209  0.709  0.500-   6 2.99   8 2.99
  13  0.960  0.952  0.750-   5 2.98   6 2.98
  14  0.040  0.048  0.250-   5 2.98   6 2.98
  15  0.548  0.540  0.750-   7 2.98   8 2.98
  16  0.452  0.460  0.250-   7 2.98   8 2.98
  17  0.710  0.790  0.043-   5 2.99   7 2.99
  18  0.710  0.790  0.457-   6 2.99   8 2.99
  19  0.290  0.210  0.957-   5 2.99   7 2.99
  20  0.290  0.210  0.543-   6 2.99   8 2.99

  LATTYP: Found a base centered orthorhombic cell.
 ALAT       =    11.6096251183
 B/A-ratio  =     1.0164897931
 C/A-ratio  =     1.0127549550

  Lattice vectors:

 A1 = (  -5.8048125592,  -5.9005327170,   0.0000000000)
 A2 = (  -5.8048125592,   5.9005327170,   0.0000000000)
 A3 = (   0.0000000000,   0.0000000000, -11.7577053641)

Analysis of symmetry for initial positions (statically):
 Subroutine PRICEL returns:
 Original cell was already a primitive cell.

 Routine SETGRP: Setting up the symmetry group for a
 base centered orthorhombic supercell.

 Subroutine GETGRP returns: Found  8 space group operations
 (whereof  2 operations were pure point group operations)
 out of a pool of  8 trial point group operations.

The static configuration has the point symmetry S_2 .
 The point group associated with its full space group is D_2h.

Analysis of symmetry for dynamics (positions and initial velocities):
 Subroutine PRICEL returns:
 Original cell was already a primitive cell.

 Routine SETGRP: Setting up the symmetry group for a
 base centered orthorhombic supercell.

 Subroutine GETGRP returns: Found  8 space group operations
 (whereof  2 operations were pure point group operations)
 out of a pool of  8 trial point group operations.

The dynamic configuration has the point symmetry S_2 .
 The point group associated with its full space group is D_2h.

 Subroutine INISYM returns: Found  8 space group operations
 (whereof  2 operations are pure point group operations),
 and found     1 'primitive' translations

 KPOINTS: 1x1x1

Automatic generation of k-mesh.
Space group operators:
 irot       det(A)        alpha          n_x          n_y          n_z        tau_x        tau_y        tau_z
    1     1.000000     0.000000     1.000000     0.000000     0.000000    -0.000000     0.000000     0.000000
    2    -1.000000     0.000000     1.000000     0.000000     0.000000    -0.000000     0.000000     0.000000
    3     1.000000   180.000000     0.000000     0.000000     1.000000    -0.000000     0.000000     0.500000
    4    -1.000000   180.000000     0.000000     0.000000     1.000000     0.000000     0.000000     0.500000
    5     1.000000   180.000000     0.000000     1.000000     0.000000     0.500000     0.500000     0.500000
    6    -1.000000   180.000000     0.000000     1.000000     0.000000     0.500000     0.500000     0.500000
    7     1.000000   180.000000     1.000000     0.000000     0.000000     0.500000     0.500000     0.000000
    8    -1.000000   180.000000     1.000000     0.000000     0.000000     0.500000     0.500000     0.000000

 Subroutine IBZKPT returns following result:

 Found      8 irreducible k-points:

 Following reciprocal coordinates:
            Coordinates               Weight
  0.000000  0.000000  0.000000      1.000000
  0.333333  0.000000  0.000000      4.000000
  0.333333  0.333333  0.000000      2.000000
 -0.333333  0.333333  0.000000      2.000000
  0.000000  0.000000  0.500000      1.000000
  0.333333  0.000000  0.500000      4.000000
  0.333333  0.333333  0.500000      2.000000
 -0.333333  0.333333  0.500000      2.000000

 Following cartesian coordinates:
            Coordinates               Weight
 -0.000000  0.000000 -0.000000      1.000000
 -0.028712 -0.028246 -0.000000      4.000000
 -0.057424 -0.000000 -0.000000      2.000000
 -0.000000  0.056492 -0.000000      2.000000
 -0.000000  0.000000 -0.042525      1.000000
 -0.028712 -0.028246 -0.042525      4.000000
 -0.057424 -0.000000 -0.042525      2.000000
 -0.000000  0.056492 -0.042525      2.000000

 SYSTEM =  CsPbBr3 cubic bulk
 POSCAR =  Cs4 Pb4 Br12

 Startparameter for this run:
   NWRITE =      2    write-flag & timer
   PREC   = accura    normal or accurate (medium, high low for compatibility)
   ISTART =      0    job   : 0-new  1-cont  2-samecut
   ICHARG =      2    charge: 1-file 2-atom 10-const
   ISPIN  =      1    spin polarized calculation?
   LNONCOLLINEAR =      F non collinear calculations
   LSORBIT =      F    spin-orbit coupling
   INIWAV =      1    electr: 0-lowe 1-rand  2-diag
   LASPH  =      T    aspherical Exc in radial PAW
   METAGGA=      F    non-selfconsistent MetaGGA calc.

 Electronic Relaxation 1
   ENCUT  =  300.0 eV  22.05 Ry    4.70 a.u.  11.69 11.69 16.61*2*pi/ulx,y,z
   ENINI  =  300.0     initial cutoff
   ENAUG  =  503.9 eV  augmentation charge cutoff
   NELM   =    200;   NELMIN=  2; NELMDL=  0     # of ELM steps
   EDIFF  = 0.1E-05   stopping-criterion for ELM
   LREAL  =      T    real-space projection
   NLSPLINE    = F    spline interpolate recip. space projectors
   LCOMPAT=      F    compatible to vasp.4.4
   GGA_COMPAT  = T    GGA compatible to vasp.4.4-vasp.4.6
   LMAXPAW     = -100 max onsite density
   LMAXMIX     =    2 max onsite mixed and CHGCAR
   VOSKOWN=      0    Vosko Wilk Nusair interpolation
   ROPT   =   -0.00025  -0.00025  -0.00025
 Ionic relaxation
   EDIFFG = -.1E-01   stopping-criterion for IOM
   NSW    =      0    number of steps for IOM
   NBLOCK =      1;   KBLOCK =      1    inner block; outer block
   IBRION =     -1    ionic relax: 0-MD 1-quasi-New 2-CG
   NFREE  =      1    steps in history (QN), initial steepest desc. (CG)
   ISIF   =      3    stress and relaxation
   IWAVPR =     10    prediction:  0-non 1-charg 2-wave 3-comb
   ISYM   =      2    0-nonsym 1-usesym 2-fastsym
   LCORR  =      T    Harris-Foulkes like correction to forces

   POTIM  = 0.5000    time-step for ionic-motion
   TEIN   =    0.0    initial temperature
   TEBEG  =    0.0;   TEEND  =   0.0 temperature during run
   SMASS  =  -3.00    Nose mass-parameter (am)
   estimated Nose-frequenzy (Omega)   =  0.10E-29 period in steps =****** mass=  -0.157E-26a.u.
   SCALEE = 1.0000    scale energy and forces
   NPACO  =    256;   APACO  = 16.0  distance and # of slots for P.C.
   PSTRESS=    0.0 pullay stress

  Mass of Ions in am
   POMASS = 132.90207.20 79.90
  Ionic Valenz
   ZVAL   =   9.00 14.00  7.00
  Atomic Wigner-Seitz radii
  virtual crystal weights
   VCA    =   1.00  1.00  1.00
   NELECT =     176.0000    total number of electrons
   NUPDOWN=      -1.0000    fix difference up-down

 DOS related values:
   EMIN   =  10.00;   EMAX   =-10.00  energy-range for DOS
   EFERMI =   0.00
   ISMEAR =     0;   SIGMA  =   0.01  broadening in eV -4-tet -1-fermi 0-gaus

 Electronic relaxation 2 (details)
   IALGO  =     38    algorithm
   LDIAG  =      T    sub-space diagonalisation (order eigenvalues)
   LSUBROT=      F    optimize rotation matrix (better conditioning)
   TURBO    =      0    0=normal 1=particle mesh
   IRESTART =      0    0=no restart 2=restart with 2 vectors
   NREBOOT  =      0    no. of reboots
   NMIN     =      0    reboot dimension
   EREF     =   0.00    reference energy to select bands
   IMIX   =      4    mixing-type and parameters
     AMIX     =   0.40;   BMIX     =  1.00
     AMIX_MAG =   1.60;   BMIX_MAG =  1.00
     AMIN     =   0.10
     WC   =   100.;   INIMIX=   1;  MIXPRE=   1;  MAXMIX= -45

 Intra band minimization:
   WEIMIN = 0.0000     energy-eigenvalue tresh-hold
[...]

[...]

 eigenvalue-minimisations  :  2168
 total energy-change (2. order) :-0.1237603E+04  (-0.1178136E+04)
 number of electron     176.0000000 magnetization
 augmentation part      176.0000000 magnetization

[...]

 Broyden mixing:
  rms(total) = 0.71466E+00    rms(broyden)= 0.71440E+00
  rms(prec ) = 0.97722E+00
  weight for this iteration     100.00

[...]

 eigenvalues of (default mixing * dielectric matrix)
  average eigenvalue GAMMA=   1.1895
  1.1895

[...]

 eigenvalue-minimisations  :  1248
 total energy-change (2. order) : 0.1582833E-05  (-0.1286168E-07)
 number of electron     175.9999998 magnetization
 augmentation part       -2.3292667 magnetization

 Broyden mixing:
  rms(total) = 0.26322E-04    rms(broyden)= 0.26043E-04
  rms(prec ) = 0.34111E-04
  weight for this iteration     100.00

 eigenvalues of (default mixing * dielectric matrix)
  average eigenvalue GAMMA=   1.6232
  2.8814  2.8814  2.1265  2.1265  0.9370  0.9855  0.9855  1.2365  1.2365  1.2292
  1.2292

[...]

--------------------------------------- Iteration      1(  17)  ---------------------------------------

 eigenvalue-minimisations  :  1176
 total energy-change (2. order) :-0.4116077E-06  (-0.2977825E-08)
 number of electron     175.9999998 magnetization
 augmentation part       -2.3292667 magnetization

 Free energy of the ion-electron system (eV)
  alpha Z        PSCENC =       447.96624474
  Ewald energy   TEWEN  =     -9207.34546477
  -Hartree energ DENC   =     -3687.63696677
  -exchange      EXHF   =         0.00000000
  -V(xc)+E(xc)   XCENC  =       481.52623665
  PAW double counting   =     11567.62072845   -12103.93837362
  entropy T*S    EENTRO =        -0.00000000
  eigenvalues    EBANDS =     -1503.31134492
  atomic energy  EATOM  =     13290.28009929
  Solvation  Ediel_sol  =         0.00000000
  free energy    TOTEN  =      -714.83884094 eV

  energy without entropy =     -714.83884094  energy(sigma->0) =     -714.83884094

 average (electrostatic) potential at core
  the test charge radii are     1.1312  1.1541  1.0178
  (the norm of the test charge is              1.0000)
       1 -55.3282       2 -55.3282       3 -55.3638       4 -55.3638       5-101.5755
       6-101.5755       7-101.5755       8-101.5755       9 -68.9632      10 -68.9632
      11 -68.9632      12 -68.9632      13 -68.9596      14 -68.9596      15 -68.9596
      16 -68.9596      17 -68.9716      18 -68.9716      19 -68.9716      20 -68.9716

 E-fermi :   0.6730     XC(G=0):  -8.0640     alpha+bet : -7.0279

 k-point     1 :       0.0000    0.0000    0.0000
  band No.  band energies     occupation
      1     -20.8773      2.00000
      2     -20.8758      2.00000
      3     -20.8530      2.00000
      4     -20.8517      2.00000
      5     -16.4114      2.00000
      6     -16.4050      2.00000
      7     -16.4049      2.00000
      8     -16.3827      2.00000
      9     -16.3507      2.00000
     10     -16.3150      2.00000
     11     -16.3091      2.00000
     12     -16.3090      2.00000
     13     -16.2428      2.00000
     14     -16.2424      2.00000
     15     -16.2415      2.00000
     16     -16.2409      2.00000
     17     -16.2402      2.00000
     18     -16.2394      2.00000
     19     -16.2392      2.00000
     20     -16.2385      2.00000
     21     -16.2337      2.00000
     22     -16.2332      2.00000
     23     -16.2324      2.00000
     24     -16.2319      2.00000
     25     -14.3408      2.00000
     26     -14.1512      2.00000
     27     -14.0108      2.00000
     28     -14.0048      2.00000
     29     -13.9985      2.00000
     30     -13.9980      2.00000
     31     -13.9811      2.00000
     32     -13.9710      2.00000
     33     -13.9253      2.00000
     34     -13.7152      2.00000
     35     -13.7058      2.00000
     36     -13.6992      2.00000
     37      -8.1714      2.00000
     38      -7.6508      2.00000
     39      -7.3085      2.00000
     40      -7.2792      2.00000
     41      -7.2747      2.00000
     42      -7.2714      2.00000
     43      -7.2712      2.00000
     44      -7.2490      2.00000
     45      -7.2450      2.00000
     46      -7.2343      2.00000
     47      -7.2339      2.00000
     48      -7.2326      2.00000
     49      -7.2246      2.00000
     50      -7.2119      2.00000
     51      -7.0919      2.00000
     52      -6.4503      2.00000
     53      -3.3464      2.00000
     54      -3.2978      2.00000
     55      -3.2753      2.00000
     56      -3.1844      2.00000
     57      -3.1651      2.00000
     58      -3.0694      2.00000
     59      -2.1199      2.00000
     60      -1.9020      2.00000
[...]
     98       5.9998      0.00000
     99       6.0402      0.00000
    100       6.0732      0.00000
    101       6.0884      0.00000
    102       6.2357      0.00000
    103       6.4592      0.00000
    104       6.4729      0.00000
    105       6.5661      0.00000
    106       6.6376      0.00000
    107       6.6451      0.00000
    108       6.7378      0.00000
    109       6.7531      0.00000
    110       6.7768      0.00000
    111       6.8177      0.00000
    112       6.8220      0.00000

[...]

 k-point     8 :      -0.3333    0.3333    0.5000
  band No.  band energies     occupation
      1     -20.8764      2.00000
      2     -20.8764      2.00000
      3     -20.8523      2.00000
      4     -20.8523      2.00000
      5     -16.3913      2.00000
      6     -16.3913      2.00000
      7     -16.3752      2.00000
      8     -16.3752      2.00000
      9     -16.3494      2.00000
     10     -16.3494      2.00000
     11     -16.3319      2.00000
     12     -16.3319      2.00000
     13     -16.2423      2.00000
     14     -16.2423      2.00000
     15     -16.2415      2.00000
     16     -16.2415      2.00000
     17     -16.2396      2.00000
     18     -16.2396      2.00000
     19     -16.2391      2.00000
     20     -16.2391      2.00000
     21     -16.2333      2.00000
     22     -16.2333      2.00000
     23     -16.2323      2.00000
     24     -16.2323      2.00000
     25     -14.1872      2.00000
     26     -14.1872      2.00000
     27     -14.0838      2.00000
     28     -14.0838      2.00000
     29     -14.0077      2.00000
     30     -14.0077      2.00000
     31     -13.8992      2.00000
     32     -13.8992      2.00000
     33     -13.8042      2.00000
     34     -13.8042      2.00000
     35     -13.7819      2.00000
     36     -13.7819      2.00000
     37      -7.5552      2.00000
     38      -7.5552      2.00000
     39      -7.3417      2.00000
     40      -7.3417      2.00000
     41      -7.2694      2.00000
     42      -7.2694      2.00000
     43      -7.2592      2.00000
     44      -7.2592      2.00000
     45      -7.2439      2.00000
     46      -7.2439      2.00000
     47      -7.2403      2.00000
     48      -7.2403      2.00000
     49      -7.2216      2.00000
     50      -7.2216      2.00000
     51      -7.1718      2.00000
     52      -7.1718      2.00000
     53      -3.1578      2.00000
     54      -3.1578      2.00000
     55      -2.7648      2.00000
     56      -2.7648      2.00000
     57      -2.5076      2.00000
     58      -2.5076      2.00000
     59      -2.3633      2.00000
     60      -2.3633      2.00000
[...]
     98       5.2203      0.00000
     99       5.9435      0.00000
    100       5.9435      0.00000
    101       6.1445      0.00000
    102       6.1445      0.00000
    103       6.3889      0.00000
    104       6.3889      0.00000
    105       6.6216      0.00000
    106       6.6216      0.00000
    107       6.7976      0.00000
    108       6.7976      0.00000
    109       6.9777      0.00000
    110       6.9777      0.00000
    111       6.9906      0.00000
    112       6.9906      0.00000

 soft charge-density along one line, spin component           1
         0         1         2         3         4         5         6         7         8         9
 total charge-density along one line

------------------------ aborting loop because EDIFF is reached ----------------------------------------

 total charge

# of ion       s       p       d       tot
    1        1.785   4.719   0.017   6.521
    2        1.785   4.719   0.017   6.521
    3        1.784   4.718   0.014   6.516
    4        1.784   4.718   0.014   6.516
    5        1.553   0.426   9.835  11.814
    6        1.553   0.426   9.835  11.814
    7        1.553   0.426   9.835  11.815
    8        1.553   0.426   9.835  11.815
    9        1.614   3.282   0.006   4.903
   10        1.614   3.282   0.006   4.903
   11        1.614   3.282   0.006   4.903
   12        1.614   3.282   0.006   4.903
   13        1.614   3.285   0.006   4.906
   14        1.614   3.285   0.006   4.906
   15        1.614   3.286   0.006   4.907
   16        1.614   3.286   0.006   4.907
   17        1.615   3.285   0.006   4.906
   18        1.615   3.285   0.006   4.906
   19        1.615   3.285   0.006   4.906
   20        1.615   3.285   0.006   4.906
tot         32.724  59.989  39.479 132.192

  FORCE on cell =-STRESS in cart. coord.  units (eV):
  Direction    XX          YY          ZZ          XY          YZ          ZX
  Alpha Z   447.96624   447.96624   447.96624
  Ewald   -3072.55789 -3081.51675 -3053.29918    -0.00000     0.00000     0.00000
  Hartree  1247.63996  1206.44008  1233.55863     0.00000     0.00000    -0.00000
  E(xc)    -739.02189  -738.90585  -738.91021    -0.06088     0.00000     0.00001
  Local   -1441.97256 -1391.98603 -1447.27124     0.00000    -0.00000    -0.00000
  n-local   900.55092   900.55667   900.67611     0.09391    -0.00001     0.00000
  augment   406.14278   406.05902   406.10357    -0.00000    -0.00000    -0.00003
  Kinetic  2250.57543  2250.66531  2250.83969    -2.11193     0.00001     0.00001
  Fock        0.00000     0.00000     0.00000     0.00000     0.00000     0.00000
  Total      -0.67702    -0.72130    -0.33639     0.00000     0.00000     0.00000
  in kB      -1.34672    -1.43482    -0.66915     0.00000     0.00000     0.00000

 VOLUME and BASIS-vectors are now :
  energy-cutoff  :      300.00
  volume of cell :      805.44
      direct lattice vectors                 reciprocal lattice vectors
    -5.804812559 -5.900532717  0.000000000    -0.086135426 -0.084738112 -0.000000000
    -5.804812559  5.900532717  0.000000000    -0.086135426  0.084738112  0.000000000
     0.000000000  0.000000000-11.757705364    -0.000000000  0.000000000 -0.085050609

  length of vectors
     8.277205760  8.277205760 11.757705364     0.120829877  0.120829877  0.085050609

 FORCES acting on ions
    electron-ion (+dipol)            ewald-force                    non-local-force                 convergence-correction
   -.195E-11 -.131E+02 -.196E-12   0.473E-13 0.131E+02 0.711E-14   0.173E-17 0.692E-01 0.102E-23   -.411E-13 -.344E-05 0.128E-12
   -.114E-11 0.131E+02 0.148E-12   -.886E-13 -.131E+02 0.000E+00   -.867E-18 -.692E-01 -.110E-23   -.234E-13 0.344E-05 -.187E-12
   -.397E-11 -.954E+01 0.255E-11   -.354E-13 0.963E+01 -.284E-13   -.217E-18 -.851E-01 -.678E-25   -.154E-14 0.260E-04 0.139E-12
   -.415E-11 0.954E+01 0.219E-11   0.156E-13 -.963E+01 -.142E-13   0.217E-18 0.851E-01 -.940E-25   -.157E-13 -.260E-04 -.183E-12
   -.225E-10 0.979E-12 0.116E-10   0.107E-13 -.423E-13 -.675E-13   0.000E+00 0.000E+00 -.103E-22   0.116E-12 0.785E-14 0.639E-12
   -.151E-10 0.219E-11 0.148E-11   -.142E-13 -.711E-13 0.355E-14   0.000E+00 0.000E+00 -.809E-23   0.461E-13 0.243E-13 -.191E-12
   0.203E-12 0.163E-10 0.217E-11   0.462E-13 -.335E-13 -.533E-13   0.000E+00 0.000E+00 0.162E-22   0.104E-12 0.128E-14 0.628E-12
   -.595E-11 0.138E-10 0.141E-10   0.142E-13 -.391E-13 -.284E-13   0.000E+00 0.000E+00 0.169E-22   0.168E-12 -.148E-13 -.188E-12
   0.210E+02 -.414E-07 0.427E-06   -.212E+02 0.173E-13 0.000E+00   0.185E+00 -.867E-18 -.281E-19   0.437E-04 -.102E-13 0.217E-12
   0.210E+02 0.414E-07 0.427E-06   -.212E+02 0.151E-13 0.124E-13   0.185E+00 -.260E-17 0.284E-19   0.437E-04 -.130E-13 -.917E-13
   -.210E+02 0.414E-07 -.427E-06   0.212E+02 0.840E-13 0.320E-13   -.185E+00 0.867E-18 -.143E-18   -.437E-04 0.239E-14 0.198E-12
   -.210E+02 -.414E-07 -.427E-06   0.212E+02 0.737E-13 -.266E-13   -.185E+00 0.173E-17 0.148E-18   -.437E-04 0.163E-14 -.118E-12
   -.235E+02 0.759E+01 -.102E-05   0.237E+02 -.774E+01 0.249E-13   -.206E+00 0.130E+00 0.230E-22   -.233E-04 -.319E-05 0.297E-12
   0.235E+02 -.759E+01 0.102E-05   -.237E+02 0.774E+01 0.355E-13   0.206E+00 -.130E+00 0.468E-23   0.233E-04 0.319E-05 -.463E-12
   0.235E+02 0.759E+01 0.102E-05   -.237E+02 -.774E+01 0.249E-13   0.206E+00 0.130E+00 -.514E-23   0.233E-04 -.319E-05 -.254E-12
   -.235E+02 -.759E+01 -.102E-05   0.237E+02 0.774E+01 0.604E-13   -.206E+00 -.130E+00 -.261E-23   -.233E-04 0.319E-05 0.936E-13
   0.848E-07 -.272E+02 0.266E+02   -.670E-15 0.274E+02 -.268E+02   0.173E-17 -.190E+00 0.218E+00   -.585E-13 0.219E-04 0.348E-05
   -.848E-07 -.272E+02 -.266E+02   -.854E-14 0.274E+02 0.268E+02   0.184E-17 -.190E+00 -.218E+00   0.174E-13 0.219E-04 -.348E-05
   -.848E-07 0.272E+02 -.266E+02   -.382E-13 -.274E+02 0.268E+02   -.173E-17 0.190E+00 -.218E+00   -.714E-14 -.219E-04 -.348E-05
   0.848E-07 0.272E+02 0.266E+02   -.360E-13 -.274E+02 -.268E+02   -.184E-17 0.190E+00 0.218E+00   -.837E-13 -.219E-04 0.348E-05
   -.994E-10 0.933E-10 0.467E-10   0.895E-14 0.142E-13 -.320E-13   0.278E-16 -.278E-16 -.555E-16   0.394E-12 0.265E-13 0.847E-12

 POSITION                                       TOTAL-FORCE (eV/Angst)
     -8.70722      2.72220     -8.81828        -0.000000     -0.005092      0.000000
     -2.90241     -2.72220     -2.93943         0.000000      0.005092      0.000000
     -2.90241      2.69831     -8.81828         0.000000     -0.002419      0.000000
     -8.70722     -2.69831     -2.93943        -0.000000      0.002419      0.000000
      0.00000      0.00000      0.00000         0.000000      0.000000      0.000000
      0.00000      0.00000     -5.87885         0.000000      0.000000      0.000000
     -5.80481      0.00000      0.00000         0.000000      0.000000      0.000000
     -5.80481      0.00000     -5.87885         0.000000      0.000000      0.000000
     -6.28446     -2.95027      0.00000        -0.016124      0.000000      0.000000
     -6.28446     -2.95027     -5.87885        -0.016124      0.000000      0.000000
     -5.32517      2.95027      0.00000         0.016124     -0.000000      0.000000
     -5.32517      2.95027     -5.87885         0.016124     -0.000000      0.000000
    -11.09902     -0.04601     -8.81828         0.030278      0.007758      0.000000
     -0.51060      0.04601     -2.93943        -0.030278     -0.007758      0.000000
     -6.31542     -0.04601     -8.81828        -0.030278      0.007758      0.000000
     -5.29421      0.04601     -2.93943         0.030278     -0.007758      0.000000
     -8.70722      0.47639     -0.51059        -0.000000      0.007356      0.007285
     -8.70722      0.47639     -5.36826        -0.000000      0.007356     -0.007285
     -2.90241     -0.47639    -11.24711         0.000000     -0.007356     -0.007285
     -2.90241     -0.47639     -6.38944         0.000000     -0.007356      0.007285
    total drift:                               -0.000000      0.000000      0.000000

  FREE ENERGIE OF THE ION-ELECTRON SYSTEM (eV)
  free  energy   TOTEN  =      -714.83884094 eV

  energy  without entropy=     -714.83884094  energy(sigma->0) =     -714.83884094

 stress matrix after NEB project (eV)
     -0.67702      0.00000      0.00000
      0.00000     -0.72130      0.00000
      0.00000      0.00000     -0.33639
  FORCES: max atom, RMS     0.031256    0.016493
  FORCE total and by dimension    0.073757    0.030278
  Stress total and by dimension    1.044888    0.721303

 total charge

# of ion       s       p       d       tot
    1        1.785   4.719   0.017   6.521
    2        1.785   4.719   0.017   6.521
    3        1.784   4.718   0.014   6.516
    4        1.784   4.718   0.014   6.516
    5        1.553   0.426   9.835  11.814
    6        1.553   0.426   9.835  11.814
    7        1.553   0.426   9.835  11.815
    8        1.553   0.426   9.835  11.815
    9        1.614   3.282   0.006   4.903
   10        1.614   3.282   0.006   4.903
   11        1.614   3.282   0.006   4.903
   12        1.614   3.282   0.006   4.903
   13        1.614   3.285   0.006   4.906
   14        1.614   3.285   0.006   4.906
   15        1.614   3.286   0.006   4.907
   16        1.614   3.286   0.006   4.907
   17        1.615   3.285   0.006   4.906
   18        1.615   3.285   0.006   4.906
   19        1.615   3.285   0.006   4.906
   20        1.615   3.285   0.006   4.906
tot         32.724  59.989  39.479 132.192