 vasp.5.4.4.18Apr17-6-g9f103f2a35 (build Jun 22 2020 09:27:21) complex

 INCAR:
 POTCAR:    PAW_PBE Cs_sv 08Apr2002
 POTCAR:    PAW_PBE Br 06Sep2000
 POTCAR:    PAW_PBE Cs_sv 08Apr2002
   VRHFIN =Cs: 5s5p6s

   TITEL  = PAW_PBE Cs_sv 08Apr2002
   POMASS =  132.900; ZVAL   =    9.000    mass and valenz
   ENMAX  =  220.318; ENMIN  =  165.238 eV

   TITEL  = PAW_PBE Br 06Sep2000
   POMASS =   79.904; ZVAL   =    7.000    mass and valenz
   ENMAX  =  216.285; ENMIN  =  162.214 eV

 Optimization of the real space projectors (new method)

 maximal supplied QI-value         = 15.12
 optimisation between [QCUT,QGAM] = [  8.77, 17.69] = [ 21.53, 87.61] Ry
 Optimized for a Real-space Cutoff    1.85 Angstroem

   l    n(q)    QCUT    max X(q) W(low)/X(q) W(high)/X(q)  e(spline)
   0     10     8.768    25.322    0.81E-04    0.51E-04    0.48E-06
   0     10     8.768    99.187    0.78E-04    0.50E-04    0.47E-06
   1      9     8.768    11.761    0.21E-03    0.20E-03    0.37E-06
   1      9     8.768     8.275    0.24E-03    0.22E-03    0.41E-06
   2      9     8.768     3.829    0.23E-04    0.15E-03    0.18E-06
 Optimization of the real space projectors (new method)

 maximal supplied QI-value         = 17.95
 optimisation between [QCUT,QGAM] = [  8.80, 17.59] = [ 21.67, 86.68] Ry
 Optimized for a Real-space Cutoff    1.59 Angstroem

   l    n(q)    QCUT    max X(q) W(low)/X(q) W(high)/X(q)  e(spline)
   0      8     8.797   175.082    0.82E-04    0.14E-03    0.89E-07
   0      8     8.797   174.004    0.79E-04    0.14E-03    0.86E-07
   1      8     8.797    54.315    0.16E-03    0.14E-04    0.30E-06
   1      8     8.797    42.441    0.16E-03    0.14E-04    0.30E-06
   2      7     8.797     3.596    0.92E-04    0.15E-03    0.85E-07
  PAW_PBE Cs_sv 08Apr2002               :
  PAW_PBE Br 06Sep2000                  :

 POSCAR: Cs1 Br1
  positions in direct lattice
  velocities in cartesian coordinates

 METAGGA = SCAN     LMAXTAU =  6    LMIXTAU =  F

 VTST: version 3.2, (02/03/18)

 CHAIN: initializing optimizer

 OPT: Using VASP Conjugate-Gradient optimizer
 CHAIN: Read ICHAIN            0

 POSCAR: Cs1 Br1
  positions in direct lattice
  velocities in cartesian coordinates

 ion  position               nearest neighbor table
   1  0.000  0.000  0.000-
   2  0.500  0.500  0.500-

  LATTYP: Found a simple cubic cell.
 ALAT       =     4.3009740798

  Lattice vectors:

 A1 = (   4.3009740798,  -0.0000000000,   0.0000000000)
 A2 = (   0.0000000000,   4.3009740798,  -0.0000000000)
 A3 = (   0.0000000000,   0.0000000000,   4.3009740798)

Analysis of symmetry for initial positions (statically):
 Subroutine PRICEL returns:
 Original cell was already a primitive cell.

 Routine SETGRP: Setting up the symmetry group for a
 simple cubic supercell.

 Subroutine GETGRP returns: Found 48 space group operations
 (whereof 48 operations were pure point group operations)
 out of a pool of 48 trial point group operations.

The static configuration has the point symmetry O_h .

Analysis of symmetry for dynamics (positions and initial velocities):
 Subroutine PRICEL returns:
 Original cell was already a primitive cell.

 Routine SETGRP: Setting up the symmetry group for a
 simple cubic supercell.

 Subroutine GETGRP returns: Found 48 space group operations
 (whereof 48 operations were pure point group operations)
 out of a pool of 48 trial point group operations.

The dynamic configuration has the point symmetry O_h .

 Subroutine INISYM returns: Found 48 space group operations
 (whereof 48 operations are pure point group operations),
 and found     1 'primitive' translations

 KPOINTS: 1x1x1

Automatic generation of k-mesh.
Space group operators:
 irot       det(A)        alpha          n_x          n_y          n_z        tau_x        tau_y        tau_z
    1     1.000000     0.000001     1.000000     0.000000     0.000000     0.000000     0.000000     0.000000
    2    -1.000000     0.000001     1.000000     0.000000     0.000000     0.000000     0.000000     0.000000
    3     1.000000   120.000000    -0.577350    -0.577350    -0.577350     0.000000     0.000000     0.000000
    4    -1.000000   120.000000    -0.577350    -0.577350    -0.577350     0.000000     0.000000     0.000000
    5     1.000000   120.000000     0.577350     0.577350     0.577350     0.000000     0.000000     0.000000
    6    -1.000000   120.000000     0.577350     0.577350     0.577350     0.000000     0.000000     0.000000
    7     1.000000    90.000000     0.000000     0.000000    -1.000000     0.000000     0.000000     0.000000
    8    -1.000000    90.000000     0.000000     0.000000    -1.000000     0.000000     0.000000     0.000000
    9     1.000000   180.000000     0.000000     0.707107     0.707107     0.000000     0.000000     0.000000
   10    -1.000000   180.000000     0.000000     0.707107     0.707107     0.000000     0.000000     0.000000
   11     1.000000    90.000000     0.000000     1.000000     0.000000     0.000000     0.000000     0.000000
   12    -1.000000    90.000000     0.000000     1.000000     0.000000     0.000000     0.000000     0.000000
   13     1.000000   180.000000     0.000000     0.000000     1.000000     0.000000     0.000000     0.000000
   14    -1.000000   180.000000     0.000000     0.000000     1.000000     0.000000     0.000000     0.000000
   15     1.000000   120.000000    -0.577350     0.577350     0.577350     0.000000     0.000000     0.000000
   16    -1.000000   120.000000    -0.577350     0.577350     0.577350     0.000000     0.000000     0.000000
   17     1.000000   120.000000    -0.577350     0.577350    -0.577350     0.000000     0.000000     0.000000
   18    -1.000000   120.000000    -0.577350     0.577350    -0.577350     0.000000     0.000000     0.000000
   19     1.000000    90.000000     0.000000     0.000000     1.000000     0.000000     0.000000     0.000000
   20    -1.000000    90.000000     0.000000     0.000000     1.000000     0.000000     0.000000     0.000000
   21     1.000000    90.000000    -1.000000     0.000000     0.000000     0.000000     0.000000     0.000000
   22    -1.000000    90.000000    -1.000000     0.000000     0.000000     0.000000     0.000000     0.000000
   23     1.000000   180.000000     0.707107     0.000000     0.707107     0.000000     0.000000     0.000000
   24    -1.000000   180.000000     0.707107     0.000000     0.707107     0.000000     0.000000     0.000000
   25     1.000000   120.000000     0.577350    -0.577350     0.577350     0.000000     0.000000     0.000000
   26    -1.000000   120.000000     0.577350    -0.577350     0.577350     0.000000     0.000000     0.000000
   27     1.000000   120.000000    -0.577350    -0.577350     0.577350     0.000000     0.000000     0.000000
   28    -1.000000   120.000000    -0.577350    -0.577350     0.577350     0.000000     0.000000     0.000000
   29     1.000000   180.000000     1.000000     0.000000     0.000000     0.000000     0.000000     0.000000
   30    -1.000000   180.000000     1.000000     0.000000     0.000000     0.000000     0.000000     0.000000
   31     1.000000    90.000000     0.000000    -1.000000     0.000000     0.000000     0.000000     0.000000
   32    -1.000000    90.000000     0.000000    -1.000000     0.000000     0.000000     0.000000     0.000000
   33     1.000000   180.000000     0.707107     0.707107     0.000000     0.000000     0.000000     0.000000
   34    -1.000000   180.000000     0.707107     0.707107     0.000000     0.000000     0.000000     0.000000
   35     1.000000    90.000000     1.000000     0.000000     0.000000     0.000000     0.000000     0.000000
   36    -1.000000    90.000000     1.000000     0.000000     0.000000     0.000000     0.000000     0.000000
   37     1.000000   120.000000     0.577350    -0.577350    -0.577350     0.000000     0.000000     0.000000
   38    -1.000000   120.000000     0.577350    -0.577350    -0.577350     0.000000     0.000000     0.000000
   39     1.000000   180.000000     0.000000     1.000000     0.000000     0.000000     0.000000     0.000000
   40    -1.000000   180.000000     0.000000     1.000000     0.000000     0.000000     0.000000     0.000000
   41     1.000000   120.000000     0.577350     0.577350    -0.577350     0.000000     0.000000     0.000000
   42    -1.000000   120.000000     0.577350     0.577350    -0.577350     0.000000     0.000000     0.000000
   43     1.000000   180.000000     0.000000    -0.707107     0.707107     0.000000     0.000000     0.000000
   44    -1.000000   180.000000     0.000000    -0.707107     0.707107     0.000000     0.000000     0.000000
   45     1.000000   180.000000     0.707107    -0.707107     0.000000     0.000000     0.000000     0.000000
   46    -1.000000   180.000000     0.707107    -0.707107     0.000000     0.000000     0.000000     0.000000
   47     1.000000   180.000000     0.707107     0.000000    -0.707107     0.000000     0.000000     0.000000
   48    -1.000000   180.000000     0.707107     0.000000    -0.707107     0.000000     0.000000     0.000000

 Subroutine IBZKPT returns following result:

 Found     84 irreducible k-points:

 Following reciprocal coordinates:
            Coordinates               Weight
  0.000000  0.000000  0.000000      1.000000
  0.083333  0.000000  0.000000      6.000000
  0.166667  0.000000  0.000000      6.000000
  0.250000  0.000000  0.000000      6.000000
  0.333333  0.000000  0.000000      6.000000
  0.416667  0.000000  0.000000      6.000000
  0.500000  0.000000  0.000000      3.000000
  0.083333  0.083333  0.000000     12.000000
  0.166667  0.083333  0.000000     24.000000
  0.250000  0.083333  0.000000     24.000000
  0.333333  0.083333  0.000000     24.000000
  0.416667  0.083333  0.000000     24.000000
  0.500000  0.083333  0.000000     12.000000
  0.166667  0.166667  0.000000     12.000000
  0.250000  0.166667  0.000000     24.000000
  0.333333  0.166667  0.000000     24.000000
  0.416667  0.166667  0.000000     24.000000
  0.500000  0.166667  0.000000     12.000000
  0.250000  0.250000  0.000000     12.000000
  0.333333  0.250000  0.000000     24.000000
  0.416667  0.250000  0.000000     24.000000
  0.500000  0.250000  0.000000     12.000000
  0.333333  0.333333  0.000000     12.000000
  0.416667  0.333333  0.000000     24.000000
  0.500000  0.333333  0.000000     12.000000
  0.416667  0.416667  0.000000     12.000000
  0.500000  0.416667  0.000000     12.000000
  0.500000  0.500000  0.000000      3.000000
  0.083333  0.083333  0.083333      8.000000
  0.166667  0.083333  0.083333     24.000000
  0.250000  0.083333  0.083333     24.000000
  0.333333  0.083333  0.083333     24.000000
  0.416667  0.083333  0.083333     24.000000
  0.500000  0.083333  0.083333     12.000000
  0.166667  0.166667  0.083333     24.000000
  0.250000  0.166667  0.083333     48.000000
  0.333333  0.166667  0.083333     48.000000
  0.416667  0.166667  0.083333     48.000000
  0.500000  0.166667  0.083333     24.000000
  0.250000  0.250000  0.083333     24.000000
  0.333333  0.250000  0.083333     48.000000
  0.416667  0.250000  0.083333     48.000000
  0.500000  0.250000  0.083333     24.000000
[...]
   0.41666667  0.16666667  0.00000000       0.014
   0.50000000  0.16666667  0.00000000       0.007
   0.25000000  0.25000000  0.00000000       0.007
   0.33333333  0.25000000  0.00000000       0.014
   0.41666667  0.25000000  0.00000000       0.014
   0.50000000  0.25000000  0.00000000       0.007
   0.33333333  0.33333333  0.00000000       0.007
   0.41666667  0.33333333  0.00000000       0.014
   0.50000000  0.33333333  0.00000000       0.007
   0.41666667  0.41666667  0.00000000       0.007
   0.50000000  0.41666667  0.00000000       0.007
   0.50000000  0.50000000  0.00000000       0.002
   0.08333333  0.08333333  0.08333333       0.005
   0.16666667  0.08333333  0.08333333       0.014
   0.25000000  0.08333333  0.08333333       0.014
   0.33333333  0.08333333  0.08333333       0.014
   0.41666667  0.08333333  0.08333333       0.014
   0.50000000  0.08333333  0.08333333       0.007
   0.16666667  0.16666667  0.08333333       0.014
   0.25000000  0.16666667  0.08333333       0.028
   0.33333333  0.16666667  0.08333333       0.028
   0.41666667  0.16666667  0.08333333       0.028
   0.50000000  0.16666667  0.08333333       0.014
   0.25000000  0.25000000  0.08333333       0.014
   0.33333333  0.25000000  0.08333333       0.028
   0.41666667  0.25000000  0.08333333       0.028
   0.50000000  0.25000000  0.08333333       0.014
   0.33333333  0.33333333  0.08333333       0.014
   0.41666667  0.33333333  0.08333333       0.028
   0.50000000  0.33333333  0.08333333       0.014
   0.41666667  0.41666667  0.08333333       0.014
   0.50000000  0.41666667  0.08333333       0.014
   0.50000000  0.50000000  0.08333333       0.003
   0.16666667  0.16666667  0.16666667       0.005
   0.25000000  0.16666667  0.16666667       0.014
   0.33333333  0.16666667  0.16666667       0.014
   0.41666667  0.16666667  0.16666667       0.014
   0.50000000  0.16666667  0.16666667       0.007
   0.25000000  0.25000000  0.16666667       0.014
   0.33333333  0.25000000  0.16666667       0.028
   0.41666667  0.25000000  0.16666667       0.028
   0.50000000  0.25000000  0.16666667       0.014
   0.33333333  0.33333333  0.16666667       0.014
   0.41666667  0.33333333  0.16666667       0.028
[...]
   0.41666667  0.33333333  0.25000000       0.028
   0.50000000  0.33333333  0.25000000       0.014
   0.41666667  0.41666667  0.25000000       0.014
   0.50000000  0.41666667  0.25000000       0.014
   0.50000000  0.50000000  0.25000000       0.003
   0.33333333  0.33333333  0.33333333       0.005
   0.41666667  0.33333333  0.33333333       0.014
   0.50000000  0.33333333  0.33333333       0.007
   0.41666667  0.41666667  0.33333333       0.014
   0.50000000  0.41666667  0.33333333       0.014
   0.50000000  0.50000000  0.33333333       0.003
   0.41666667  0.41666667  0.41666667       0.005
   0.50000000  0.41666667  0.41666667       0.007
   0.50000000  0.50000000  0.41666667       0.003
   0.50000000  0.50000000  0.50000000       0.001

 position of ions in fractional coordinates (direct lattice)
   0.00000000  0.00000000  0.00000000
   0.50000000  0.50000000  0.50000000

 position of ions in cartesian coordinates  (Angst):
   0.00000000  0.00000000  0.00000000
   2.15048704  2.15048704  2.15048704

 k-point  1 :   0.0000 0.0000 0.0000  plane waves:     925
 k-point  2 :   0.0833 0.0000 0.0000  plane waves:     932
 k-point  3 :   0.1667 0.0000 0.0000  plane waves:     936
 k-point  4 :   0.2500 0.0000 0.0000  plane waves:     932
 k-point  5 :   0.3333 0.0000 0.0000  plane waves:     932
 k-point  6 :   0.4167 0.0000 0.0000  plane waves:     932
 k-point  7 :   0.5000 0.0000 0.0000  plane waves:     916
 k-point  8 :   0.0833 0.0833 0.0000  plane waves:     941
 k-point  9 :   0.1667 0.0833 0.0000  plane waves:     947
 k-point 10 :   0.2500 0.0833 0.0000  plane waves:     935
 k-point 11 :   0.3333 0.0833 0.0000  plane waves:     932
 k-point 12 :   0.4167 0.0833 0.0000  plane waves:     926
 k-point 13 :   0.5000 0.0833 0.0000  plane waves:     926
 k-point 14 :   0.1667 0.1667 0.0000  plane waves:     941
 k-point 15 :   0.2500 0.1667 0.0000  plane waves:     934
 k-point 16 :   0.3333 0.1667 0.0000  plane waves:     934
 k-point 17 :   0.4167 0.1667 0.0000  plane waves:     937
 k-point 18 :   0.5000 0.1667 0.0000  plane waves:     924
 k-point 19 :   0.2500 0.2500 0.0000  plane waves:     927
 k-point 20 :   0.3333 0.2500 0.0000  plane waves:     933
 k-point 21 :   0.4167 0.2500 0.0000  plane waves:     936
 k-point 22 :   0.5000 0.2500 0.0000  plane waves:     944
 k-point 23 :   0.3333 0.3333 0.0000  plane waves:     946
 k-point 24 :   0.4167 0.3333 0.0000  plane waves:     937
 k-point 25 :   0.5000 0.3333 0.0000  plane waves:     940
 k-point 26 :   0.4167 0.4167 0.0000  plane waves:     938
 k-point 27 :   0.5000 0.4167 0.0000  plane waves:     936
 k-point 28 :   0.5000 0.5000 0.0000  plane waves:     952
 k-point 29 :   0.0833 0.0833 0.0833  plane waves:     937
 k-point 30 :   0.1667 0.0833 0.0833  plane waves:     941
 k-point 31 :   0.2500 0.0833 0.0833  plane waves:     932
 k-point 32 :   0.3333 0.0833 0.0833  plane waves:     931
 k-point 33 :   0.4167 0.0833 0.0833  plane waves:     933
 k-point 34 :   0.5000 0.0833 0.0833  plane waves:     928
 k-point 35 :   0.1667 0.1667 0.0833  plane waves:     935
 k-point 36 :   0.2500 0.1667 0.0833  plane waves:     934
 k-point 37 :   0.3333 0.1667 0.0833  plane waves:     934
 k-point 38 :   0.4167 0.1667 0.0833  plane waves:     934
 k-point 39 :   0.5000 0.1667 0.0833  plane waves:     934
 k-point 40 :   0.2500 0.2500 0.0833  plane waves:     933
 k-point 41 :   0.3333 0.2500 0.0833  plane waves:     934
 k-point 42 :   0.4167 0.2500 0.0833  plane waves:     933
 k-point 43 :   0.5000 0.2500 0.0833  plane waves:     930
 k-point 44 :   0.3333 0.3333 0.0833  plane waves:     932
 k-point 45 :   0.4167 0.3333 0.0833  plane waves:     936
 k-point 46 :   0.5000 0.3333 0.0833  plane waves:     938
 k-point 47 :   0.4167 0.4167 0.0833  plane waves:     941
 k-point 48 :   0.5000 0.4167 0.0833  plane waves:     938
 k-point 49 :   0.5000 0.5000 0.0833  plane waves:     952
 k-point 50 :   0.1667 0.1667 0.1667  plane waves:     943
 k-point 51 :   0.2500 0.1667 0.1667  plane waves:     932
 k-point 52 :   0.3333 0.1667 0.1667  plane waves:     943
 k-point 53 :   0.4167 0.1667 0.1667  plane waves:     929
 k-point 54 :   0.5000 0.1667 0.1667  plane waves:     926
 k-point 55 :   0.2500 0.2500 0.1667  plane waves:     936
 k-point 56 :   0.3333 0.2500 0.1667  plane waves:     940
 k-point 57 :   0.4167 0.2500 0.1667  plane waves:     937
 k-point 58 :   0.5000 0.2500 0.1667  plane waves:     942
 k-point 59 :   0.3333 0.3333 0.1667  plane waves:     934
 k-point 60 :   0.4167 0.3333 0.1667  plane waves:     946
[...]
 k-point 70 :   0.4167 0.3333 0.2500  plane waves:     948
 k-point 71 :   0.5000 0.3333 0.2500  plane waves:     946
 k-point 72 :   0.4167 0.4167 0.2500  plane waves:     950
 k-point 73 :   0.5000 0.4167 0.2500  plane waves:     950
 k-point 74 :   0.5000 0.5000 0.2500  plane waves:     944
 k-point 75 :   0.3333 0.3333 0.3333  plane waves:     943
 k-point 76 :   0.4167 0.3333 0.3333  plane waves:     944
 k-point 77 :   0.5000 0.3333 0.3333  plane waves:     954
 k-point 78 :   0.4167 0.4167 0.3333  plane waves:     950
 k-point 79 :   0.5000 0.4167 0.3333  plane waves:     952
 k-point 80 :   0.5000 0.5000 0.3333  plane waves:     940
 k-point 81 :   0.4167 0.4167 0.4167  plane waves:     940
 k-point 82 :   0.5000 0.4167 0.4167  plane waves:     942
 k-point 83 :   0.5000 0.5000 0.4167  plane waves:     948
 k-point 84 :   0.5000 0.5000 0.5000  plane waves:     968

 maximum and minimum number of plane-waves per node :       132      103

 maximum number of plane-waves:       968
 maximum index in each direction:
   IXMAX=    6   IYMAX=    6   IZMAX=    6
   IXMIN=   -6   IYMIN=   -6   IZMIN=   -6

 real space projection operators:
  max/ min on nodes  :         99.23         87.75

 parallel 3D FFT for wavefunctions:
    minimum data exchange during FFTs selected (reduces bandwidth)
 parallel 3D FFT for charge:
    minimum data exchange during FFTs selected (reduces bandwidth)

 Broyden mixing: mesh for mixing (old mesh)
   NGX = 13   NGY = 13   NGZ = 13
  (NGX  = 48   NGY  = 48   NGZ  = 48)
  gives a total of   2197 points

 initial charge density was supplied:
 charge density of overlapping atoms calculated
 number of electron      16.0000000 magnetization
 keeping initial charge density in first step

 Maximum index for non-local projection operator          591
 Maximum index for augmentation-charges         2009 (set IRDMAX)

 First call to EWALD:  gamma=   0.412
 Maximum number of real-space cells 3x 3x 3
 Maximum number of reciprocal cells 3x 3x 3

--------------------------------------- Iteration      1(   1)  ---------------------------------------

 eigenvalue-minimisations  :  2688
 total energy-change (2. order) : 0.7723998E+01  (-0.4925378E+03)
 number of electron      16.0000000 magnetization
 augmentation part       16.0000000 magnetization

 Free energy of the ion-electron system (eV)
  alpha Z        PSCENC =        53.27869122
  Ewald energy   TEWEN  =      -786.60710445
  -Hartree energ DENC   =      -116.77085809
  -exchange      EXHF   =         0.00000000
  -V(xc)+E(xc)   XCENC  =        34.77053099
  PAW double counting   =       705.56938342     -752.39983350
  entropy T*S    EENTRO =        -0.00003372
  eigenvalues    EBANDS =       -54.23493566
  atomic energy  EATOM  =       924.11815769
  Solvation  Ediel_sol  =         0.00000000
  free energy    TOTEN  =         7.72399789 eV

  energy without entropy =        7.72403161  energy(sigma->0) =        7.72401475

[...]

 eigenvalue-minimisations  :  3864
 total energy-change (2. order) :-0.6801047E+02  (-0.6364781E+02)
 number of electron      16.0000000 magnetization
 augmentation part       16.0000000 magnetization

[...]

 Broyden mixing:
  rms(total) = 0.17223E+00    rms(broyden)= 0.17216E+00
  rms(prec ) = 0.60152E+00
  weight for this iteration     100.00

[...]

 eigenvalues of (default mixing * dielectric matrix)
  average eigenvalue GAMMA=   1.3758
  1.3758

[...]

 eigenvalue-minimisations  :  3200
 total energy-change (2. order) : 0.3269295E-05  (-0.2549232E-06)
 number of electron      16.0000000 magnetization
 augmentation part       -3.3799121 magnetization

 Broyden mixing:
  rms(total) = 0.21270E-03    rms(broyden)= 0.21270E-03
  rms(prec ) = 0.55930E-03
  weight for this iteration     100.00

 eigenvalues of (default mixing * dielectric matrix)
  average eigenvalue GAMMA=   1.6868
  3.0326  2.5885  2.5885  1.4460  0.9870  0.9870  0.9924  0.8723

[...]

--------------------------------------- Iteration      1(  14)  ---------------------------------------

 eigenvalue-minimisations  :  2080
 total energy-change (2. order) :-0.4772037E-06  (-0.3640327E-07)
 number of electron      16.0000000 magnetization
 augmentation part       -3.3799121 magnetization

 Free energy of the ion-electron system (eV)
  alpha Z        PSCENC =        53.27869122
  Ewald energy   TEWEN  =      -786.60710445
  -Hartree energ DENC   =      -120.56793246
  -exchange      EXHF   =         0.00000000
  -V(xc)+E(xc)   XCENC  =        35.43182738
  PAW double counting   =       748.17846855     -795.35993355
  entropy T*S    EENTRO =        -0.00000000
  eigenvalues    EBANDS =      -119.64134000
  atomic energy  EATOM  =       924.11815769
  Solvation  Ediel_sol  =         0.00000000
  free energy    TOTEN  =       -61.16916564 eV

  energy without entropy =      -61.16916564  energy(sigma->0) =      -61.16916564

 average (electrostatic) potential at core
  the test charge radii are     1.1312  1.0178
  (the norm of the test charge is              1.0000)
       1 -55.3844       2 -68.3646

 E-fermi :  -0.4845     XC(G=0):  -8.3206     alpha+bet : -7.8477

 k-point     1 :       0.0000    0.0000    0.0000
  band No.  band energies     occupation
      1     -21.0104      2.00000
      2     -13.4600      2.00000
      3      -7.1565      2.00000
      4      -7.1565      2.00000
      5      -7.1565      2.00000
      6      -0.6202      2.00000
      7      -0.6202      2.00000
      8      -0.6202      2.00000
      9       4.5877      0.00000
     10       4.7922      0.00000
     11       4.7922      0.00000
     12       9.2317      0.00000
     13       9.2317      0.00000
     14       9.2317      0.00000
     15      12.1389      0.00000
     16      12.1389      0.00000

[...]

 k-point    84 :       0.5000    0.5000    0.5000
  band No.  band energies     occupation
      1     -20.8679      2.00000
      2     -13.2795      2.00000
      3      -7.5548      2.00000
      4      -7.5548      2.00000
      5      -7.5548      2.00000
      6      -1.7724      2.00000
      7      -1.7724      2.00000
      8      -1.7724      2.00000
      9       8.3479      0.00000
     10       8.3479      0.00000
     11       8.3479      0.00000
     12       9.1948      0.00000
     13       9.1948      0.00000
     14       9.1948      0.00000
     15      11.3921      0.00000
     16      11.3921      0.00000

 soft charge-density along one line, spin component           1
         0         1         2         3         4         5         6         7         8         9
 total charge-density along one line

------------------------ aborting loop because EDIFF is reached ----------------------------------------

 total charge

# of ion       s       p       d       tot
    1        1.791   4.715   0.027   6.533
    2        1.605   3.316   0.002   4.922
tot          3.396   8.030   0.029  11.455

  FORCE on cell =-STRESS in cart. coord.  units (eV):
  Direction    XX          YY          ZZ          XY          YZ          ZX
  Alpha Z    53.27869    53.27869    53.27869
  Ewald    -262.20235  -262.20235  -262.20235    -0.00000     0.00000     0.00000
  Hartree    40.18880    40.18880    40.18880    -0.00000    -0.00000    -0.00000
  E(xc)     -59.97203   -59.81908   -59.64827    -0.02112     0.03399     0.00469
  Local     -34.51038   -34.51038   -34.51038    -0.00000    -0.00000     0.00000
  n-local    56.44091    57.10187    57.57226    -0.15003     0.11812    -0.01835
  augment   -16.31914   -16.31914   -16.31914    -0.00000    -0.00000    -0.00000
  Kinetic   216.99775   222.36106   227.60382    -0.84278     1.09933     0.08278
  Fock        0.00000     0.00000     0.00000     0.00000     0.00000     0.00000
  Total      -0.01828    -0.01828    -0.01828    -0.00000    -0.00000     0.00000
  in kB      -0.36815    -0.36815    -0.36815    -0.00000    -0.00000     0.00000

 VOLUME and BASIS-vectors are now :
  energy-cutoff  :      300.00
  volume of cell :       79.56
      direct lattice vectors                 reciprocal lattice vectors
     4.300974080 -0.000000000  0.000000000     0.232505470 -0.000000000  0.000000000
     0.000000000  4.300974080 -0.000000000     0.000000000  0.232505470 -0.000000000
     0.000000000  0.000000000  4.300974080     0.000000000  0.000000000  0.232505470

  length of vectors
     4.300974080  4.300974080  4.300974080     0.232505470  0.232505470  0.232505470

 FORCES acting on ions
    electron-ion (+dipol)            ewald-force                    non-local-force                 convergence-correction
   0.169E-09 -.371E-10 -.647E-10   0.129E-14 -.164E-14 -.111E-14   0.000E+00 0.000E+00 0.240E-24   -.166E-14 -.636E-15 0.350E-14
   0.138E-13 0.559E-13 -.667E-12   -.929E-15 0.155E-14 0.114E-14   0.000E+00 0.000E+00 -.419E-24   -.350E-14 0.409E-14 0.317E-14
   0.169E-09 -.371E-10 -.653E-10   0.359E-15 -.875E-16 0.279E-16   0.000E+00 0.000E+00 -.179E-24   -.516E-14 0.346E-14 0.668E-14

 POSITION                                       TOTAL-FORCE (eV/Angst)
      0.00000      0.00000      0.00000         0.000000      0.000000      0.000000
      2.15049      2.15049      2.15049         0.000000      0.000000     -0.000000
    total drift:                                0.000000     -0.000000     -0.000000

  FREE ENERGIE OF THE ION-ELECTRON SYSTEM (eV)
  free  energy   TOTEN  =       -61.16916564 eV

  energy  without entropy=      -61.16916564  energy(sigma->0) =      -61.16916564

 stress matrix after NEB project (eV)
     -0.01828     -0.00000      0.00000
     -0.00000     -0.01828      0.00000
      0.00000     -0.00000     -0.01828
  FORCES: max atom, RMS     0.000000    0.000000
  FORCE total and by dimension    0.000000    0.000000
  Stress total and by dimension    0.031665    0.018282

 total charge

# of ion       s       p       d       tot
    1        1.791   4.715   0.027   6.533
    2        1.605   3.316   0.002   4.922
tot          3.396   8.030   0.029  11.455