 vasp.5.4.4.18Apr17-6-g9f103f2a35 (build Jun 22 2020 09:27:21) complex

 INCAR:
 POTCAR:    PAW_PBE Cs_sv 08Apr2002
 POTCAR:    PAW_PBE Pb_d 06Sep2000
 POTCAR:    PAW_PBE Br 06Sep2000
 POTCAR:    PAW_PBE Cs_sv 08Apr2002
   VRHFIN =Cs: 5s5p6s

   TITEL  = PAW_PBE Cs_sv 08Apr2002
   POMASS =  132.900; ZVAL   =    9.000    mass and valenz
   ENMAX  =  220.318; ENMIN  =  165.238 eV

 POTCAR:    PAW_PBE Pb_d 06Sep2000
   VRHFIN =Pb:

   TITEL  = PAW_PBE Pb_d 06Sep2000
   POMASS =  207.200; ZVAL   =   14.000    mass and valenz
   ENMAX  =  237.835; ENMIN  =  178.376 eV

 POTCAR:    PAW_PBE Br 06Sep2000
   VRHFIN =Br: s2p5

   TITEL  = PAW_PBE Br 06Sep2000
   POMASS =   79.904; ZVAL   =    7.000    mass and valenz
   ENMAX  =  216.285; ENMIN  =  162.214 eV

 Optimization of the real space projectors (new method)

 maximal supplied QI-value         = 15.12
 optimisation between [QCUT,QGAM] = [  8.77, 17.69] = [ 21.53, 87.61] Ry
 Optimized for a Real-space Cutoff    1.85 Angstroem

   l    n(q)    QCUT    max X(q) W(low)/X(q) W(high)/X(q)  e(spline)
   0     10     8.768    25.322    0.81E-04    0.51E-04    0.48E-06
   0     10     8.768    99.187    0.78E-04    0.50E-04    0.47E-06
   1      9     8.768    11.761    0.21E-03    0.20E-03    0.37E-06
   1      9     8.768     8.275    0.24E-03    0.22E-03    0.41E-06
   2      9     8.768     3.829    0.23E-04    0.15E-03    0.18E-06
 Optimization of the real space projectors (new method)

[...]

   l    n(q)    QCUT    max X(q) W(low)/X(q) W(high)/X(q)  e(spline)
   2      7     8.768     3.846    0.48E-04    0.11E-03    0.11E-06
   2      7     8.768     8.593    0.20E-03    0.22E-04    0.24E-06
   0      8     8.768    20.082    0.68E-04    0.88E-04    0.41E-07
   0      8     8.768     8.597    0.89E-04    0.13E-03    0.59E-07
   1      8     8.768    33.223    0.15E-03    0.53E-04    0.87E-07
   1      8     8.768    15.899    0.14E-03    0.44E-04    0.78E-07
 Optimization of the real space projectors (new method)

 maximal supplied QI-value         = 17.95
 optimisation between [QCUT,QGAM] = [  8.80, 17.59] = [ 21.67, 86.68] Ry
 Optimized for a Real-space Cutoff    1.59 Angstroem

   l    n(q)    QCUT    max X(q) W(low)/X(q) W(high)/X(q)  e(spline)
   0      8     8.797   175.082    0.82E-04    0.14E-03    0.89E-07
   0      8     8.797   174.004    0.79E-04    0.14E-03    0.86E-07
   1      8     8.797    54.315    0.16E-03    0.14E-04    0.30E-06
   1      8     8.797    42.441    0.16E-03    0.14E-04    0.30E-06
   2      7     8.797     3.596    0.92E-04    0.15E-03    0.85E-07
  PAW_PBE Cs_sv 08Apr2002               :
  PAW_PBE Pb_d 06Sep2000                :
  PAW_PBE Br 06Sep2000                  :

 POSCAR: Cs4 Pb4 Br12
  positions in direct lattice
  velocities in cartesian coordinates

 METAGGA = SCAN     LMAXTAU =  6    LMIXTAU =  F

 VTST: version 3.2, (02/03/18)

 CHAIN: initializing optimizer

 OPT: Using VASP Conjugate-Gradient optimizer
 CHAIN: Read ICHAIN            0

 POSCAR: Cs4 Pb4 Br12
  positions in direct lattice
  velocities in cartesian coordinates

 ion  position               nearest neighbor table
   1  0.500  0.000  0.000-
   2  0.500  0.500  0.500-
   3  0.000  0.000  0.500-
   4  0.000  0.500  0.000-
   5  0.000  0.000  0.000-   9 2.98  11 2.98  13 2.98  14 2.98  17 2.98  20 2.98
   6  0.000  0.500  0.500-  10 2.98  12 2.98  13 2.98  14 2.98  18 2.98  19 2.98
   7  0.500  0.000  0.500-   9 2.98  11 2.98  15 2.98  16 2.98  18 2.98  19 2.98
   8  0.500  0.500  0.000-  10 2.98  12 2.98  15 2.98  16 2.98  17 2.98  20 2.98
   9  0.218  0.943  0.225-   5 2.98   7 2.98
  10  0.218  0.492  0.775-   6 2.98   8 2.98
  11  0.782  0.057  0.775-   5 2.98   7 2.98
  12  0.782  0.508  0.225-   6 2.98   8 2.98
  13  0.010  0.781  0.729-   6 2.98   5 2.98
  14  0.990  0.219  0.271-   6 2.98   5 2.98
  15  0.552  0.781  0.271-   7 2.98   8 2.98
  16  0.448  0.219  0.729-   7 2.98   8 2.98
  17  0.286  0.275  0.060-   8 2.98   5 2.98
  18  0.286  0.725  0.511-   6 2.98   7 2.98
  19  0.714  0.275  0.489-   6 2.98   7 2.98
  20  0.714  0.725  0.940-   8 2.98   5 2.98

  LATTYP: Found a body centered orthorhombic cell.
 ALAT       =    11.7431296685
 B/A-ratio  =     1.0009199485
 C/A-ratio  =     1.0031342845

  Lattice vectors:

 A1 = (  -5.8715648343,  -5.8769663714,  -5.8899679888)
 A2 = (   5.8715648343,   5.8769663714,  -5.8899679888)
 A3 = (   5.8715648343,  -5.8769663714,   5.8899679888)

Analysis of symmetry for initial positions (statically):
 Subroutine PRICEL returns:
 Original cell was already a primitive cell.

 Routine SETGRP: Setting up the symmetry group for a
 body centered orthorhombic supercell.

 Subroutine GETGRP returns: Found  8 space group operations
 (whereof  2 operations were pure point group operations)
 out of a pool of  8 trial point group operations.

The static configuration has the point symmetry S_2 .
 The point group associated with its full space group is D_2h.

Analysis of symmetry for dynamics (positions and initial velocities):
 Subroutine PRICEL returns:
 Original cell was already a primitive cell.

 Routine SETGRP: Setting up the symmetry group for a
 body centered orthorhombic supercell.

 Subroutine GETGRP returns: Found  8 space group operations
 (whereof  2 operations were pure point group operations)
 out of a pool of  8 trial point group operations.

The dynamic configuration has the point symmetry S_2 .
 The point group associated with its full space group is D_2h.

 Subroutine INISYM returns: Found  8 space group operations
 (whereof  2 operations are pure point group operations),
 and found     1 'primitive' translations

 KPOINTS: 1x1x1

Automatic generation of k-mesh.
Space group operators:
 irot       det(A)        alpha          n_x          n_y          n_z        tau_x        tau_y        tau_z
    1     1.000000     0.000000     1.000000     0.000000     0.000000     0.000000     0.000000     0.000000
    2    -1.000000     0.000000     1.000000     0.000000     0.000000     0.000000     0.000000     0.000000
    3     1.000000   180.000000     0.000000    -0.000000    -1.000000     0.000000     0.500000     0.500000
    4    -1.000000   180.000000     0.000000    -0.000000    -1.000000     0.000000     0.500000     0.500000
    5     1.000000   180.000000    -0.000000    -1.000000    -0.000000    -0.500000     0.000000    -0.500000
    6    -1.000000   180.000000    -0.000000    -1.000000    -0.000000    -0.500000     0.000000    -0.500000
    7     1.000000   180.000000     1.000000     0.000000     0.000000     0.500000     0.500000     0.000000
    8    -1.000000   180.000000     1.000000     0.000000     0.000000     0.500000     0.500000     0.000000

 Subroutine IBZKPT returns following result:

 Found      8 irreducible k-points:

 Following reciprocal coordinates:
            Coordinates               Weight
  0.000000  0.000000  0.000000      1.000000
  0.333333  0.000000  0.000000      4.000000
  0.000000  0.333333  0.000000      4.000000
  0.333333  0.333333  0.000000      8.000000
 -0.333333  0.333333  0.000000      4.000000
 -0.333333  0.333333  0.333333      2.000000
  0.333333 -0.333333  0.333333      2.000000
 -0.333333 -0.333333  0.333333      2.000000

 Following cartesian coordinates:
            Coordinates               Weight
  0.000000  0.000000 -0.000000      1.000000
  0.028385  0.028359 -0.000000      4.000000
  0.028385  0.000000 -0.028297      4.000000
  0.056771  0.028359 -0.028297      8.000000
  0.000000 -0.028359 -0.028297      4.000000
  0.000000  0.000000 -0.056593      2.000000
  0.000000  0.056719 -0.000000      2.000000
 -0.056771  0.000000 -0.000000      2.000000

 SYSTEM =  CsPbBr3 cubic bulk
 POSCAR =  Cs4 Pb4 Br12

 Startparameter for this run:
   NWRITE =      2    write-flag & timer
   PREC   = accura    normal or accurate (medium, high low for compatibility)
   ISTART =      0    job   : 0-new  1-cont  2-samecut
   ICHARG =      2    charge: 1-file 2-atom 10-const
   ISPIN  =      1    spin polarized calculation?
   LNONCOLLINEAR =      F non collinear calculations
   LSORBIT =      F    spin-orbit coupling
   INIWAV =      1    electr: 0-lowe 1-rand  2-diag
   LASPH  =      T    aspherical Exc in radial PAW
   METAGGA=      F    non-selfconsistent MetaGGA calc.

 Electronic Relaxation 1
   ENCUT  =  300.0 eV  22.05 Ry    4.70 a.u.  14.38 14.38 14.38*2*pi/ulx,y,z
   ENINI  =  300.0     initial cutoff
   ENAUG  =  503.9 eV  augmentation charge cutoff
   NELM   =    200;   NELMIN=  2; NELMDL=  0     # of ELM steps
   EDIFF  = 0.1E-05   stopping-criterion for ELM
   LREAL  =      T    real-space projection
   NLSPLINE    = F    spline interpolate recip. space projectors
   LCOMPAT=      F    compatible to vasp.4.4
   GGA_COMPAT  = T    GGA compatible to vasp.4.4-vasp.4.6
   LMAXPAW     = -100 max onsite density
   LMAXMIX     =    2 max onsite mixed and CHGCAR
   VOSKOWN=      0    Vosko Wilk Nusair interpolation
   ROPT   =   -0.00025  -0.00025  -0.00025
 Ionic relaxation
   EDIFFG = -.1E-01   stopping-criterion for IOM
   NSW    =      0    number of steps for IOM
   NBLOCK =      1;   KBLOCK =      1    inner block; outer block
   IBRION =     -1    ionic relax: 0-MD 1-quasi-New 2-CG
   NFREE  =      1    steps in history (QN), initial steepest desc. (CG)
   ISIF   =      3    stress and relaxation
   IWAVPR =     10    prediction:  0-non 1-charg 2-wave 3-comb
   ISYM   =      2    0-nonsym 1-usesym 2-fastsym
   LCORR  =      T    Harris-Foulkes like correction to forces

   POTIM  = 0.5000    time-step for ionic-motion
   TEIN   =    0.0    initial temperature
   TEBEG  =    0.0;   TEEND  =   0.0 temperature during run
   SMASS  =  -3.00    Nose mass-parameter (am)
   estimated Nose-frequenzy (Omega)   =  0.10E-29 period in steps =****** mass=  -0.237E-26a.u.
   SCALEE = 1.0000    scale energy and forces
   NPACO  =    256;   APACO  = 16.0  distance and # of slots for P.C.
   PSTRESS=    0.0 pullay stress

  Mass of Ions in am
   POMASS = 132.90207.20 79.90
  Ionic Valenz
   ZVAL   =   9.00 14.00  7.00
  Atomic Wigner-Seitz radii
  virtual crystal weights
   VCA    =   1.00  1.00  1.00
   NELECT =     176.0000    total number of electrons
   NUPDOWN=      -1.0000    fix difference up-down

 DOS related values:
   EMIN   =  10.00;   EMAX   =-10.00  energy-range for DOS
   EFERMI =   0.00
   ISMEAR =     0;   SIGMA  =   0.01  broadening in eV -4-tet -1-fermi 0-gaus

 Electronic relaxation 2 (details)
   IALGO  =     38    algorithm
   LDIAG  =      T    sub-space diagonalisation (order eigenvalues)
   LSUBROT=      F    optimize rotation matrix (better conditioning)
   TURBO    =      0    0=normal 1=particle mesh
   IRESTART =      0    0=no restart 2=restart with 2 vectors
   NREBOOT  =      0    no. of reboots
   NMIN     =      0    reboot dimension
   EREF     =   0.00    reference energy to select bands
   IMIX   =      4    mixing-type and parameters
     AMIX     =   0.40;   BMIX     =  1.00
     AMIX_MAG =   1.60;   BMIX_MAG =  1.00
     AMIN     =   0.10
     WC   =   100.;   INIMIX=   1;  MIXPRE=   1;  MAXMIX= -45

 Intra band minimization:
   WEIMIN = 0.0000     energy-eigenvalue tresh-hold
[...]
  average eigenvalue GAMMA=   1.2070
  1.2070

[...]

 Broyden mixing:
  rms(total) = 0.23179E-03    rms(broyden)= 0.22836E-03
  rms(prec ) = 0.26911E-03
  weight for this iteration     100.00

[...]

 Broyden mixing:
  rms(total) = 0.74008E-04    rms(broyden)= 0.62491E-04
  rms(prec ) = 0.83559E-04
  weight for this iteration     100.00
  WARNING: grid for Broyden might be to small

[...]

 eigenvalue-minimisations  :  1176
 total energy-change (2. order) : 0.1531694E-05  (-0.5318013E-08)
 number of electron     176.0000003 magnetization
 augmentation part       -2.3303523 magnetization

 Broyden mixing:
  rms(total) = 0.41752E-04    rms(broyden)= 0.13114E-04
  rms(prec ) = 0.16224E-04
  weight for this iteration     100.00
  WARNING: grid for Broyden might be to small

 eigenvalues of (default mixing * dielectric matrix)
  average eigenvalue GAMMA=   1.7425
  3.5492  2.8311  2.8311  2.2593  1.8260  1.3852  1.2033  1.0894  1.0894  0.9616
  0.9616  0.9225

[...]

--------------------------------------- Iteration      1(  18)  ---------------------------------------

 eigenvalue-minimisations  :  1160
 total energy-change (2. order) :-0.2416480E-06  (-0.2395184E-08)
 number of electron     176.0000003 magnetization
 augmentation part       -2.3303523 magnetization

 Free energy of the ion-electron system (eV)
  alpha Z        PSCENC =       443.81021102
  Ewald energy   TEWEN  =     -9149.85740183
  -Hartree energ DENC   =     -3732.92749711
  -exchange      EXHF   =         0.00000000
  -V(xc)+E(xc)   XCENC  =       481.54899467
  PAW double counting   =     11580.22551642   -12116.68870453
  entropy T*S    EENTRO =        -0.00000000
  eigenvalues    EBANDS =     -1511.16391138
  atomic energy  EATOM  =     13290.28009929
  Solvation  Ediel_sol  =         0.00000000
  free energy    TOTEN  =      -714.77269345 eV

  energy without entropy =     -714.77269345  energy(sigma->0) =     -714.77269345

 average (electrostatic) potential at core
  the test charge radii are     1.1312  1.1541  1.0178
  (the norm of the test charge is              1.0000)
       1 -55.6229       2 -55.3970       3 -55.4081       4 -55.4377       5-101.5855
       6-101.5855       7-101.5855       8-101.5855       9 -69.0057      10 -69.0057
      11 -69.0057      12 -69.0057      13 -69.0068      14 -69.0068      15 -69.0068
      16 -69.0068      17 -69.0008      18 -69.0008      19 -69.0008      20 -69.0008

 E-fermi :   0.3896     XC(G=0):  -8.0171     alpha+bet : -6.9627

 k-point     1 :       0.0000    0.0000    0.0000
  band No.  band energies     occupation
      1     -21.1153      2.00000
      2     -20.9559      2.00000
      3     -20.9244      2.00000
      4     -20.9192      2.00000
      5     -16.4268      2.00000
      6     -16.4253      2.00000
      7     -16.3968      2.00000
      8     -16.3966      2.00000
      9     -16.3954      2.00000
     10     -16.3260      2.00000
     11     -16.3256      2.00000
     12     -16.3256      2.00000
     13     -16.2515      2.00000
     14     -16.2508      2.00000
     15     -16.2506      2.00000
     16     -16.2503      2.00000
     17     -16.2502      2.00000
     18     -16.2498      2.00000
     19     -16.2497      2.00000
     20     -16.2495      2.00000
     21     -16.2490      2.00000
     22     -16.2488      2.00000
     23     -16.2483      2.00000
     24     -16.2480      2.00000
     25     -14.3877      2.00000
     26     -14.0437      2.00000
     27     -14.0433      2.00000
     28     -14.0410      2.00000
     29     -14.0388      2.00000
     30     -14.0387      2.00000
     31     -14.0333      2.00000
     32     -13.9654      2.00000
     33     -13.9647      2.00000
     34     -13.9614      2.00000
     35     -13.7321      2.00000
     36     -13.7311      2.00000
     37      -7.6953      2.00000
     38      -7.6875      2.00000
     39      -7.6846      2.00000
     40      -7.4735      2.00000
     41      -7.4657      2.00000
     42      -7.4602      2.00000
     43      -7.3660      2.00000
     44      -7.3424      2.00000
     45      -7.3272      2.00000
     46      -7.3197      2.00000
     47      -7.3106      2.00000
     48      -7.2978      2.00000
     49      -7.2880      2.00000
     50      -7.2848      2.00000
     51      -7.2846      2.00000
     52      -6.4442      2.00000
     53      -3.3647      2.00000
     54      -3.3611      2.00000
     55      -3.3517      2.00000
     56      -3.1400      2.00000
     57      -3.1238      2.00000
     58      -3.1027      2.00000
     59      -2.1732      2.00000
     60      -2.1626      2.00000
[...]
     98       5.7859      0.00000
     99       5.7965      0.00000
    100       5.8758      0.00000
    101       6.3468      0.00000
    102       6.3775      0.00000
    103       6.4296      0.00000
    104       6.6835      0.00000
    105       6.6879      0.00000
    106       6.7011      0.00000
    107       6.7077      0.00000
    108       6.7269      0.00000
    109       6.7344      0.00000
    110       6.7397      0.00000
    111       6.8250      0.00000
    112       7.2709      0.00000

[...]

 k-point     8 :      -0.3333   -0.3333    0.3333
  band No.  band energies     occupation
      1     -21.1152      2.00000
      2     -20.9559      2.00000
      3     -20.9242      2.00000
      4     -20.9192      2.00000
      5     -16.4267      2.00000
      6     -16.4154      2.00000
      7     -16.4152      2.00000
      8     -16.3791      2.00000
      9     -16.3575      2.00000
     10     -16.3575      2.00000
     11     -16.3434      2.00000
     12     -16.3259      2.00000
     13     -16.2513      2.00000
     14     -16.2508      2.00000
     15     -16.2505      2.00000
     16     -16.2502      2.00000
     17     -16.2499      2.00000
     18     -16.2496      2.00000
     19     -16.2494      2.00000
     20     -16.2493      2.00000
     21     -16.2490      2.00000
     22     -16.2488      2.00000
     23     -16.2486      2.00000
     24     -16.2478      2.00000
     25     -14.2777      2.00000
     26     -14.1723      2.00000
     27     -14.1703      2.00000
     28     -14.0386      2.00000
     29     -14.0374      2.00000
     30     -14.0353      2.00000
     31     -14.0341      2.00000
     32     -14.0104      2.00000
     33     -13.9206      2.00000
     34     -13.7734      2.00000
     35     -13.7709      2.00000
     36     -13.7312      2.00000
     37      -8.1125      2.00000
     38      -7.4741      2.00000
     39      -7.4663      2.00000
     40      -7.4625      2.00000
     41      -7.3784      2.00000
     42      -7.3606      2.00000
     43      -7.3421      2.00000
     44      -7.3293      2.00000
     45      -7.3276      2.00000
     46      -7.3267      2.00000
     47      -7.3043      2.00000
     48      -7.2978      2.00000
     49      -7.2886      2.00000
     50      -7.2200      2.00000
     51      -7.2171      2.00000
     52      -6.9584      2.00000
     53      -3.3005      2.00000
     54      -3.2981      2.00000
     55      -3.2590      2.00000
     56      -3.2301      2.00000
     57      -2.8653      2.00000
     58      -2.8573      2.00000
     59      -2.2148      2.00000
     60      -2.0276      2.00000
[...]
     98       6.0174      0.00000
     99       6.0274      0.00000
    100       6.0923      0.00000
    101       6.1759      0.00000
    102       6.2057      0.00000
    103       6.2647      0.00000
    104       6.2764      0.00000
    105       6.3122      0.00000
    106       6.5367      0.00000
    107       6.6111      0.00000
    108       6.6411      0.00000
    109       6.6810      0.00000
    110       6.8360      0.00000
    111       6.9001      0.00000
    112       6.9045      0.00000

 soft charge-density along one line, spin component           1
         0         1         2         3         4         5         6         7         8         9
 total charge-density along one line

------------------------ aborting loop because EDIFF is reached ----------------------------------------

 total charge

# of ion       s       p       d       tot
    1        1.781   4.717   0.010   6.508
    2        1.785   4.719   0.016   6.520
    3        1.784   4.718   0.015   6.517
    4        1.784   4.719   0.015   6.518
    5        1.552   0.432   9.835  11.819
    6        1.552   0.432   9.835  11.819
    7        1.552   0.432   9.835  11.819
    8        1.552   0.432   9.835  11.819
    9        1.615   3.284   0.007   4.905
   10        1.615   3.284   0.007   4.905
   11        1.615   3.284   0.007   4.905
   12        1.615   3.284   0.007   4.905
   13        1.615   3.283   0.007   4.904
   14        1.615   3.283   0.007   4.904
   15        1.615   3.283   0.007   4.904
   16        1.615   3.283   0.007   4.904
   17        1.615   3.284   0.007   4.905
   18        1.615   3.284   0.007   4.905
   19        1.615   3.284   0.007   4.905
   20        1.615   3.284   0.007   4.905
tot         32.716  60.003  39.477 132.197

  FORCE on cell =-STRESS in cart. coord.  units (eV):
  Direction    XX          YY          ZZ          XY          YZ          ZX
  Alpha Z   443.81021   443.81021   443.81021
  Ewald   -3054.89514 -3046.48846 -3048.50073     0.00000     0.00000    -0.00000
  Hartree  1246.58621  1247.15820  1239.18254    -0.00000     0.00000     0.00000
  E(xc)    -738.92597  -738.90533  -738.87771     0.00239    -0.00056    -0.00221
  Local   -1454.60278 -1463.59354 -1453.79241     0.00040    -0.00041    -0.00041
  n-local   900.72415   900.84442   900.83523    -0.05064    -0.06312     0.05419
  augment   406.18381   406.15089   406.09976     0.00010    -0.00004    -0.00008
  Kinetic  2250.24681  2250.41738  2250.75833     0.04257     0.03329    -0.03755
  Fock        0.00000     0.00000     0.00000     0.00000     0.00000     0.00000
  Total      -0.87270    -0.60624    -0.48479    -0.00000     0.00000     0.00000
  in kB      -1.71987    -1.19474    -0.95539    -0.00000     0.00000     0.00000

 VOLUME and BASIS-vectors are now :
  energy-cutoff  :      300.00
  volume of cell :      812.98
      direct lattice vectors                 reciprocal lattice vectors
     5.871564834  5.876966371  5.889967989     0.085156175  0.085077907 -0.000000000
     5.871564834 -5.876966371 -5.889967989     0.085156175 -0.000000000 -0.084890105
    -5.871564834  5.876966371 -5.889967989     0.000000000  0.085077907 -0.084890105

  length of vectors
    10.183601045 10.183601045 10.183601045     0.120373686  0.120241024  0.120185607

 FORCES acting on ions
    electron-ion (+dipol)            ewald-force                    non-local-force                 convergence-correction
   0.311E-12 -.314E-12 0.192E-12   0.387E-13 0.107E-13 0.711E-14   0.827E-24 0.827E-24 0.000E+00   -.128E-13 -.129E-13 -.168E-13
   0.228E-10 0.475E-10 -.648E-10   0.142E-13 0.497E-13 -.142E-13   0.000E+00 -.207E-24 0.000E+00   -.257E-13 0.200E-13 0.246E-13
   0.583E-10 0.439E-09 -.323E-09   0.139E-13 -.178E-13 -.533E-14   0.000E+00 -.207E-24 0.000E+00   -.870E-14 -.239E-13 0.335E-13
   0.169E-09 0.130E-09 -.280E-09   0.353E-13 -.142E-13 0.142E-13   0.103E-24 0.000E+00 0.000E+00   -.284E-13 -.660E-13 -.630E-15
   -.176E-13 0.452E-13 0.133E-13   0.114E-12 0.853E-13 0.604E-13   0.000E+00 0.662E-23 -.662E-23   0.182E-12 0.130E-12 -.928E-13
   0.189E-13 0.746E-14 -.884E-12   0.112E-12 0.355E-13 -.608E-13   0.000E+00 0.000E+00 0.000E+00   0.128E-12 0.544E-13 -.822E-13
   0.183E-11 -.695E-12 0.173E-11   0.309E-13 -.160E-13 -.893E-13   0.000E+00 0.000E+00 -.265E-22   0.210E-12 0.448E-13 -.132E-12
   0.297E-11 -.252E-11 0.452E-11   0.284E-13 0.178E-13 -.266E-13   0.132E-22 0.000E+00 0.265E-22   0.192E-12 0.693E-13 -.461E-13
   0.187E+02 0.832E-05 -.149E+02   -.189E+02 -.235E-11 0.151E+02   0.120E+00 -.867E-18 -.110E+00   -.187E-04 -.889E-09 -.442E-04
   0.187E+02 -.185E-06 0.149E+02   -.189E+02 0.230E-11 -.151E+02   0.120E+00 -.867E-18 0.110E+00   -.187E-04 -.574E-09 0.442E-04
   -.187E+02 -.832E-05 0.149E+02   0.189E+02 0.229E-11 -.151E+02   -.120E+00 0.173E-17 0.110E+00   0.187E-04 0.889E-09 0.442E-04
   -.187E+02 0.185E-06 -.149E+02   0.189E+02 -.236E-11 0.151E+02   -.120E+00 0.867E-18 -.110E+00   0.187E-04 0.574E-09 -.442E-04
   -.164E+02 0.116E+02 -.615E-06   0.166E+02 -.117E+02 -.233E-10   -.160E+00 0.951E-01 0.347E-17   -.226E-05 -.404E-04 -.216E-11
   0.164E+02 -.116E+02 0.615E-06   -.166E+02 0.117E+02 0.233E-10   0.160E+00 -.951E-01 -.347E-17   0.226E-05 0.404E-04 0.222E-11
   -.164E+02 -.116E+02 0.458E-05   0.166E+02 0.117E+02 0.497E-13   -.160E+00 -.951E-01 -.347E-17   -.226E-05 0.404E-04 -.646E-09
   0.164E+02 0.116E+02 -.458E-05   -.166E+02 -.117E+02 0.888E-13   0.160E+00 0.951E-01 0.347E-17   0.226E-05 -.404E-04 0.646E-09
   -.488E-05 -.203E+02 0.153E+02   -.264E-11 0.204E+02 -.154E+02   0.000E+00 -.172E+00 0.964E-01   0.285E-09 -.166E-04 -.634E-05
   0.377E-05 -.203E+02 -.153E+02   0.203E-11 0.204E+02 0.154E+02   0.000E+00 -.172E+00 -.964E-01   -.339E-09 -.166E-04 0.634E-05
   -.377E-05 0.203E+02 0.153E+02   -.216E-11 -.204E+02 -.154E+02   0.867E-18 0.172E+00 0.964E-01   0.339E-09 0.166E-04 -.634E-05
   0.488E-05 0.203E+02 -.153E+02   0.254E-11 -.204E+02 0.154E+02   0.000E+00 0.172E+00 -.964E-01   -.285E-09 0.166E-04 0.634E-05
   0.263E-09 0.611E-09 -.676E-09   0.391E-13 -.355E-13 -.107E-13   0.867E-18 -.278E-16 0.278E-16   0.676E-12 0.249E-12 -.308E-12

 POSITION                                       TOTAL-FORCE (eV/Angst)
      2.93578      2.93848      2.94498         0.000000      0.000000      0.000000
      2.93578      2.93848     -2.94498         0.000000      0.000000      0.000000
     -2.93578      2.93848     -2.94498         0.000000      0.000000      0.000000
      2.93578     -2.93848     -2.94498         0.000000      0.000000      0.000000
      0.00000      0.00000      0.00000         0.000000      0.000000      0.000000
      0.00000      0.00000     -5.88997         0.000000      0.000000      0.000000
      0.00000      5.87697      0.00000         0.000000      0.000000      0.000000
      5.87156      0.00000      0.00000         0.000000      0.000000      0.000000
      5.49221     -2.93848     -5.59782        -0.018518      0.000000     -0.001878
     -0.37935      2.93848     -6.18212        -0.018518     -0.000000      0.001878
      0.37935      8.81545     -0.29215         0.018518     -0.000000      0.001878
      6.25092      2.93848      0.29215         0.018518      0.000000     -0.001878
      0.36168     -0.24869     -8.83495        -0.006521      0.005252      0.000000
      5.50988      6.12565      2.94498         0.006521     -0.005252      0.000000
      6.23325      0.24869     -2.94498        -0.006521     -0.005252      0.000000
     -0.36168      5.62828     -2.94498         0.006521      0.005252     -0.000000
      2.93578      0.41838     -0.29268        -0.000000     -0.006407      0.004008
      2.93578      0.41838     -5.59729         0.000000     -0.006407     -0.004008
      2.93578      5.45858     -0.29268        -0.000000      0.006407      0.004008
      2.93578      5.45858     -5.59729         0.000000      0.006407     -0.004008
    total drift:                                0.000000      0.000000     -0.000000

  FREE ENERGIE OF THE ION-ELECTRON SYSTEM (eV)
  free  energy   TOTEN  =      -714.77269345 eV

  energy  without entropy=     -714.77269345  energy(sigma->0) =     -714.77269345

 stress matrix after NEB project (eV)
     -0.87270     -0.00000      0.00000
     -0.00000     -0.60624      0.00000
      0.00000      0.00000     -0.48479
  FORCES: max atom, RMS     0.018613    0.009733
  FORCE total and by dimension    0.043527    0.018518
  Stress total and by dimension    1.167965    0.872698

 total charge

# of ion       s       p       d       tot
    1        1.781   4.717   0.010   6.508
    2        1.785   4.719   0.016   6.520
    3        1.784   4.718   0.015   6.517
    4        1.784   4.719   0.015   6.518
    5        1.552   0.432   9.835  11.819
    6        1.552   0.432   9.835  11.819
    7        1.552   0.432   9.835  11.819
    8        1.552   0.432   9.835  11.819
    9        1.615   3.284   0.007   4.905
   10        1.615   3.284   0.007   4.905
   11        1.615   3.284   0.007   4.905
   12        1.615   3.284   0.007   4.905
   13        1.615   3.283   0.007   4.904
   14        1.615   3.283   0.007   4.904
   15        1.615   3.283   0.007   4.904
   16        1.615   3.283   0.007   4.904
   17        1.615   3.284   0.007   4.905
   18        1.615   3.284   0.007   4.905
   19        1.615   3.284   0.007   4.905
   20        1.615   3.284   0.007   4.905
tot         32.716  60.003  39.477 132.197