 vasp.5.4.4.18Apr17-6-g9f103f2a35 (build Jun 22 2020 09:27:21) complex

 INCAR:
 POTCAR:    PAW_PBE Cs_sv 08Apr2002
 POTCAR:    PAW_PBE Pb_d 06Sep2000
 POTCAR:    PAW_PBE Br 06Sep2000
 POTCAR:    PAW_PBE Cs_sv 08Apr2002
   VRHFIN =Cs: 5s5p6s

   TITEL  = PAW_PBE Cs_sv 08Apr2002
   POMASS =  132.900; ZVAL   =    9.000    mass and valenz
   ENMAX  =  220.318; ENMIN  =  165.238 eV

   TITEL  = PAW_PBE Pb_d 06Sep2000
   POMASS =  207.200; ZVAL   =   14.000    mass and valenz
   ENMAX  =  237.835; ENMIN  =  178.376 eV

   TITEL  = PAW_PBE Br 06Sep2000
   POMASS =   79.904; ZVAL   =    7.000    mass and valenz
   ENMAX  =  216.285; ENMIN  =  162.214 eV

 Optimization of the real space projectors (new method)

 maximal supplied QI-value         = 15.12
 optimisation between [QCUT,QGAM] = [  8.77, 17.69] = [ 21.53, 87.61] Ry
 Optimized for a Real-space Cutoff    1.85 Angstroem

   l    n(q)    QCUT    max X(q) W(low)/X(q) W(high)/X(q)  e(spline)
   0     10     8.768    25.322    0.81E-04    0.51E-04    0.48E-06
   0     10     8.768    99.187    0.78E-04    0.50E-04    0.47E-06
   1      9     8.768    11.761    0.21E-03    0.20E-03    0.37E-06
   1      9     8.768     8.275    0.24E-03    0.22E-03    0.41E-06
   2      9     8.768     3.829    0.23E-04    0.15E-03    0.18E-06
 Optimization of the real space projectors (new method)

[...]

   l    n(q)    QCUT    max X(q) W(low)/X(q) W(high)/X(q)  e(spline)
   2      7     8.768     3.846    0.48E-04    0.11E-03    0.11E-06
   2      7     8.768     8.593    0.20E-03    0.22E-04    0.24E-06
   0      8     8.768    20.082    0.68E-04    0.88E-04    0.41E-07
   0      8     8.768     8.597    0.89E-04    0.13E-03    0.59E-07
   1      8     8.768    33.223    0.15E-03    0.53E-04    0.87E-07
   1      8     8.768    15.899    0.14E-03    0.44E-04    0.78E-07
 Optimization of the real space projectors (new method)

 maximal supplied QI-value         = 17.95
 optimisation between [QCUT,QGAM] = [  8.80, 17.59] = [ 21.67, 86.68] Ry
 Optimized for a Real-space Cutoff    1.59 Angstroem

   l    n(q)    QCUT    max X(q) W(low)/X(q) W(high)/X(q)  e(spline)
   0      8     8.797   175.082    0.82E-04    0.14E-03    0.89E-07
   0      8     8.797   174.004    0.79E-04    0.14E-03    0.86E-07
   1      8     8.797    54.315    0.16E-03    0.14E-04    0.30E-06
   1      8     8.797    42.441    0.16E-03    0.14E-04    0.30E-06
   2      7     8.797     3.596    0.92E-04    0.15E-03    0.85E-07
  PAW_PBE Cs_sv 08Apr2002               :
  PAW_PBE Pb_d 06Sep2000                :
  PAW_PBE Br 06Sep2000                  :

 POSCAR: Cs8 Pb8 Br24
  positions in direct lattice

 METAGGA = SCAN     LMAXTAU =  6    LMIXTAU =  F

 VTST: version 3.2, (02/03/18)

 CHAIN: initializing optimizer

 OPT: Using VASP Conjugate-Gradient optimizer
 CHAIN: Read ICHAIN            0

 POSCAR: Cs8 Pb8 Br24
  positions in direct lattice

 ion  position               nearest neighbor table
   1  0.250  0.250  0.250-
   2  0.250  0.250  0.750-
   3  0.250  0.750  0.250-
   4  0.250  0.750  0.750-
   5  0.750  0.250  0.250-
   6  0.750  0.250  0.750-
   7  0.750  0.750  0.250-
   8  0.750  0.750  0.750-
   9  0.000  0.000  0.000-  17 3.10  19 3.10  33 3.10  37 3.10  25 3.11  26 3.11
  10  0.000  0.000  0.500-  18 3.10  20 3.10  34 3.10  38 3.10  25 3.11  26 3.11
  11  0.000  0.500  0.000-  17 3.10  19 3.10  35 3.10  39 3.10  27 3.11  28 3.11
  12  0.000  0.500  0.500-  18 3.10  20 3.10  36 3.10  40 3.10  27 3.11  28 3.11
  13  0.500  0.000  0.000-  21 3.10  23 3.10  33 3.10  37 3.10  29 3.11  30 3.11
  14  0.500  0.000  0.500-  22 3.10  24 3.10  34 3.10  38 3.10  29 3.11  30 3.11
  15  0.500  0.500  0.000-  21 3.10  23 3.10  35 3.10  39 3.10  31 3.11  32 3.11
  16  0.500  0.500  0.500-  22 3.10  24 3.10  36 3.10  40 3.10  31 3.11  32 3.11
  17  0.944  0.250  0.062-   9 3.10  11 3.10
  18  0.944  0.250  0.438-  10 3.10  12 3.10
  19  0.056  0.750  0.938-   9 3.10  11 3.10
  20  0.056  0.750  0.562-  10 3.10  12 3.10
  21  0.556  0.250  0.938-  13 3.10  15 3.10
  22  0.556  0.250  0.562-  14 3.10  16 3.10
  23  0.444  0.750  0.062-  13 3.10  15 3.10
  24  0.444  0.750  0.438-  14 3.10  16 3.10
  25  0.062  0.938  0.250-   9 3.11  10 3.11
  26  0.938  0.062  0.750-   9 3.11  10 3.11
  27  0.938  0.562  0.250-  11 3.11  12 3.11
  28  0.062  0.438  0.750-  11 3.11  12 3.11
  29  0.438  0.062  0.250-  13 3.11  14 3.11
  30  0.562  0.938  0.750-  13 3.11  14 3.11
  31  0.562  0.438  0.250-  15 3.11  16 3.11
  32  0.438  0.562  0.750-  15 3.11  16 3.11
  33  0.250  0.056  0.938-   9 3.10  13 3.10
  34  0.250  0.056  0.562-  10 3.10  14 3.10
  35  0.250  0.444  0.062-  11 3.10  15 3.10
  36  0.250  0.444  0.438-  12 3.10  16 3.10
  37  0.750  0.944  0.062-   9 3.10  13 3.10
  38  0.750  0.944  0.438-  10 3.10  14 3.10
  39  0.750  0.556  0.938-  11 3.10  15 3.10
  40  0.750  0.556  0.562-  12 3.10  16 3.10

  LATTYP: Found a simple cubic cell.
 ALAT       =    11.7353520000

  Lattice vectors:

 A1 = (  11.7353520000,   0.0000000000,   0.0000000000)
 A2 = (   0.0000000000,  11.7353520000,   0.0000000000)
 A3 = (   0.0000000000,   0.0000000000,  11.7353520000)

Analysis of symmetry for initial positions (statically):
 Subroutine PRICEL returns following result:

  LATTYP: Found a simple tetragonal cell.
 ALAT       =     8.2981469788
 C/A-ratio  =     1.4142135624

[...]

   2 primitive cells build up your supercell.

 Routine SETGRP: Setting up the symmetry group for a
 simple cubic supercell.

 Subroutine GETGRP returns: Found  8 space group operations
 (whereof  2 operations were pure point group operations)
 out of a pool of 48 trial point group operations.

The static configuration has the point symmetry S_2 .
 The point group associated with its full space group is D_2h.

Analysis of symmetry for dynamics (positions and initial velocities):
 Subroutine PRICEL returns following result:

  LATTYP: Found a simple tetragonal cell.
 ALAT       =     8.2981469788
 C/A-ratio  =     1.4142135624

  Lattice vectors:

 A1 = (   5.8676760000,  -5.8676760000,   0.0000000000)
 A2 = (  -5.8676760000,  -5.8676760000,   0.0000000000)
 A3 = (   0.0000000000,   0.0000000000, -11.7353520000)

   2 primitive cells build up your supercell.

 Routine SETGRP: Setting up the symmetry group for a
 simple cubic supercell.

 Subroutine GETGRP returns: Found  8 space group operations
 (whereof  2 operations were pure point group operations)
 out of a pool of 48 trial point group operations.

The dynamic configuration has the point symmetry S_2 .
 The point group associated with its full space group is D_2h.

 Subroutine INISYM returns: Found  8 space group operations
 (whereof  2 operations are pure point group operations),
 and found     2 'primitive' translations

 KPOINTS: 1x1x1

Automatic generation of k-mesh.
Space group operators:
 irot       det(A)        alpha          n_x          n_y          n_z        tau_x        tau_y        tau_z
    1     1.000000     0.000000     1.000000     0.000000     0.000000    -0.000000    -0.000000    -0.000000
    2    -1.000000     0.000000     1.000000     0.000000     0.000000    -0.000000    -0.000000    -0.000000
    3     1.000000   180.000000     0.000000     0.000000     1.000000    -0.000000    -0.000000    -0.500000
    4    -1.000000   180.000000     0.000000     0.000000     1.000000    -0.000000    -0.000000    -0.500000
    5     1.000000   180.000000     0.707107     0.707107     0.000000     0.000000    -0.500000    -0.500000
    6    -1.000000   180.000000     0.707107     0.707107     0.000000     0.000000    -0.500000    -0.500000
    7     1.000000   180.000000     0.707107    -0.707107     0.000000     0.000000    -0.500000    -0.000000
    8    -1.000000   180.000000     0.707107    -0.707107     0.000000     0.000000    -0.500000    -0.000000

 Subroutine IBZKPT returns following result:

 Found      6 irreducible k-points:

 Following reciprocal coordinates:
            Coordinates               Weight
  0.000000  0.000000  0.000000      1.000000
  0.500000  0.000000  0.000000      2.000000
  0.500000  0.500000  0.000000      1.000000
  0.000000  0.000000  0.500000      1.000000
  0.500000  0.000000  0.500000      2.000000
  0.500000  0.500000  0.500000      1.000000

 Following cartesian coordinates:
            Coordinates               Weight
  0.000000  0.000000  0.000000      1.000000
  0.042606  0.000000  0.000000      2.000000
  0.042606  0.042606  0.000000      1.000000
  0.000000  0.000000  0.042606      1.000000
  0.042606  0.000000  0.042606      2.000000
  0.042606  0.042606  0.042606      1.000000

 SYSTEM =  CsPbBr3 cubic bulk
 POSCAR =  Cs8 Pb8 Br24

 Startparameter for this run:
   NWRITE =      2    write-flag & timer
   PREC   = accura    normal or accurate (medium, high low for compatibility)
   ISTART =      0    job   : 0-new  1-cont  2-samecut
   ICHARG =      2    charge: 1-file 2-atom 10-const
   ISPIN  =      1    spin polarized calculation?
   LNONCOLLINEAR =      F non collinear calculations
   LSORBIT =      F    spin-orbit coupling
   INIWAV =      1    electr: 0-lowe 1-rand  2-diag
   LASPH  =      T    aspherical Exc in radial PAW
   METAGGA=      F    non-selfconsistent MetaGGA calc.

 Electronic Relaxation 1
   ENCUT  =  300.0 eV  22.05 Ry    4.70 a.u.  16.57 16.57 16.57*2*pi/ulx,y,z
   ENINI  =  300.0     initial cutoff
   ENAUG  =  503.9 eV  augmentation charge cutoff
   NELM   =    200;   NELMIN=  2; NELMDL= -5     # of ELM steps
   EDIFF  = 0.1E-05   stopping-criterion for ELM
   LREAL  =      T    real-space projection
   NLSPLINE    = F    spline interpolate recip. space projectors
   LCOMPAT=      F    compatible to vasp.4.4
   GGA_COMPAT  = T    GGA compatible to vasp.4.4-vasp.4.6
   LMAXPAW     = -100 max onsite density
   LMAXMIX     =    2 max onsite mixed and CHGCAR
   VOSKOWN=      0    Vosko Wilk Nusair interpolation
   ROPT   =   -0.00025  -0.00025  -0.00025
 Ionic relaxation
   EDIFFG = -.1E-01   stopping-criterion for IOM
   NSW    =      0    number of steps for IOM
   NBLOCK =      1;   KBLOCK =      1    inner block; outer block
   IBRION =     -1    ionic relax: 0-MD 1-quasi-New 2-CG
   NFREE  =      1    steps in history (QN), initial steepest desc. (CG)
   ISIF   =      3    stress and relaxation
   IWAVPR =     10    prediction:  0-non 1-charg 2-wave 3-comb
   ISYM   =      2    0-nonsym 1-usesym 2-fastsym
   LCORR  =      T    Harris-Foulkes like correction to forces

   POTIM  = 0.5000    time-step for ionic-motion
   TEIN   =    0.0    initial temperature
   TEBEG  =    0.0;   TEEND  =   0.0 temperature during run
   SMASS  =  -3.00    Nose mass-parameter (am)
   estimated Nose-frequenzy (Omega)   =  0.10E-29 period in steps =****** mass=  -0.315E-26a.u.
   SCALEE = 1.0000    scale energy and forces
   NPACO  =    256;   APACO  = 16.0  distance and # of slots for P.C.
   PSTRESS=    0.0 pullay stress

  Mass of Ions in am
   POMASS = 132.90207.20 79.90
  Ionic Valenz
   ZVAL   =   9.00 14.00  7.00
  Atomic Wigner-Seitz radii
  virtual crystal weights
   VCA    =   1.00  1.00  1.00
   NELECT =     352.0000    total number of electrons
   NUPDOWN=      -1.0000    fix difference up-down

[...]
     23     -16.7616      2.00000
     24     -16.7616      2.00000
     25     -16.7032      2.00000
     26     -16.7032      2.00000
     27     -16.7032      2.00000
     28     -16.7032      2.00000
     29     -16.7032      2.00000
     30     -16.7032      2.00000
     31     -16.7032      2.00000
     32     -16.7032      2.00000
     33     -16.6922      2.00000
     34     -16.6922      2.00000
     35     -16.6922      2.00000
     36     -16.6922      2.00000
     37     -16.6922      2.00000
     38     -16.6922      2.00000
     39     -16.6922      2.00000
     40     -16.6922      2.00000
     41     -16.6915      2.00000
     42     -16.6915      2.00000
     43     -16.6915      2.00000
     44     -16.6915      2.00000
     45     -16.6915      2.00000
     46     -16.6915      2.00000
     47     -16.6915      2.00000
     48     -16.6915      2.00000
     49     -14.2126      2.00000
     50     -14.2126      2.00000
     51     -14.1956      2.00000
     52     -14.1956      2.00000
     53     -14.1706      2.00000
     54     -14.1706      2.00000
     55     -14.1706      2.00000
     56     -14.1706      2.00000
     57     -14.0016      2.00000
     58     -14.0016      2.00000
     59     -14.0016      2.00000
     60     -14.0016      2.00000
[...]
    202       6.2288      0.00000
    203       6.2314      0.00000
    204       6.2314      0.00000
    205       6.4551      0.00000
    206       6.4551      0.00000
    207       6.4551      0.00000
    208       6.4551      0.00000
    209       6.4958      0.00000
    210       6.4958      0.00000
    211       6.5756      0.00000
    212       6.5756      0.00000
    213       6.5756      0.00000
    214       6.5756      0.00000
    215       6.8634      0.00000
    216       6.8753      0.00000

 soft charge-density along one line, spin component           1
         0         1         2         3         4         5         6         7         8         9
 total charge-density along one line

------------------------ aborting loop because EDIFF is reached ----------------------------------------

 total charge

# of ion       s       p       d       tot
    1        1.799   4.724   0.047   6.570
    2        1.799   4.724   0.047   6.570
    3        1.799   4.724   0.047   6.570
    4        1.799   4.724   0.047   6.570
    5        1.799   4.724   0.047   6.570
    6        1.799   4.724   0.047   6.570
    7        1.799   4.724   0.047   6.570
    8        1.799   4.724   0.047   6.570
    9        1.553   0.375   9.825  11.753
   10        1.553   0.375   9.825  11.753
   11        1.553   0.375   9.825  11.753
   12        1.553   0.375   9.825  11.753
   13        1.553   0.375   9.825  11.753
   14        1.553   0.375   9.825  11.753
   15        1.553   0.375   9.825  11.753
   16        1.553   0.375   9.825  11.753
   17        1.614   3.298   0.005   4.917
   18        1.614   3.298   0.005   4.917
   19        1.614   3.298   0.005   4.917
   20        1.614   3.298   0.005   4.917
   21        1.614   3.298   0.005   4.917
   22        1.614   3.298   0.005   4.917
   23        1.614   3.298   0.005   4.917
   24        1.614   3.298   0.005   4.917
   25        1.615   3.289   0.005   4.909
   26        1.615   3.289   0.005   4.909
   27        1.615   3.288   0.005   4.909
   28        1.615   3.288   0.005   4.909
   29        1.615   3.288   0.005   4.909
   30        1.615   3.288   0.005   4.909
   31        1.615   3.289   0.005   4.909
   32        1.615   3.289   0.005   4.909
   33        1.615   3.275   0.006   4.896
   34        1.615   3.275   0.006   4.896
   35        1.615   3.275   0.006   4.896
   36        1.615   3.275   0.006   4.896
   37        1.615   3.275   0.006   4.896
   38        1.615   3.275   0.006   4.896
   39        1.615   3.275   0.006   4.896
   40        1.615   3.275   0.006   4.896
tot         65.575 119.683  79.104 264.363

  FORCE on cell =-STRESS in cart. coord.  units (eV):
  Direction    XX          YY          ZZ          XY          YZ          ZX
  Alpha Z   892.99476   892.99476   892.99476
  Ewald   -6208.73547 -6208.73547 -6242.30881  -478.09437     0.00000    -0.00000
  Hartree  2362.06828  2362.06828  2374.99935  -249.01966    -0.00000    -0.00000
  E(xc)   -1477.87210 -1477.74352 -1478.06678    -0.83768     0.00001     0.00001
  Local   -2676.25302 -2676.25302 -2656.93521   722.02666    -0.00000     0.00000
  n-local  1791.47744  1791.92534  1790.19883    -2.08586     0.00001     0.00000
  augment   814.24405   814.24405   814.18702    -0.48894    -0.00004    -0.00004
  Kinetic  4504.55950  4511.22242  4506.92110    -4.17593     0.00000     0.00000
  Fock        0.00000     0.00000     0.00000     0.00000     0.00000     0.00000
  Total       6.10315     6.10315     1.99027   -12.67577     0.00000     0.00000
  in kB       6.05029     6.05029     1.97303   -12.56599     0.00000     0.00000

 VOLUME and BASIS-vectors are now :
  energy-cutoff  :      300.00
  volume of cell :     1616.17
      direct lattice vectors                 reciprocal lattice vectors
    11.735352000  0.000000000  0.000000000     0.085212612  0.000000000  0.000000000
     0.000000000 11.735352000  0.000000000     0.000000000  0.085212612  0.000000000
     0.000000000  0.000000000 11.735352000     0.000000000  0.000000000  0.085212612

  length of vectors
    11.735352000 11.735352000 11.735352000     0.085212612  0.085212612  0.085212612

 FORCES acting on ions
    electron-ion (+dipol)            ewald-force                    non-local-force                 convergence-correction
   0.215E+02 0.206E+02 0.170E-07   -.216E+02 -.205E+02 0.000E+00   -.739E+00 -.632E+00 -.493E-25   0.574E-05 0.228E-05 0.320E-12
   -.215E+02 -.206E+02 -.170E-07   0.216E+02 0.205E+02 0.799E-14   0.739E+00 0.632E+00 0.566E-25   -.574E-05 -.228E-05 -.284E-12
   0.206E+02 0.215E+02 0.170E-07   -.205E+02 -.216E+02 0.178E-14   -.632E+00 -.739E+00 0.259E-24   0.228E-05 0.574E-05 0.374E-12
   -.206E+02 -.215E+02 -.170E-07   0.205E+02 0.216E+02 0.178E-14   0.632E+00 0.739E+00 -.753E-25   -.228E-05 -.574E-05 -.339E-12
   0.206E+02 0.215E+02 0.170E-07   -.205E+02 -.216E+02 0.000E+00   -.632E+00 -.739E+00 0.299E-24   0.228E-05 0.574E-05 0.400E-12
   -.206E+02 -.215E+02 -.170E-07   0.205E+02 0.216E+02 0.711E-14   0.632E+00 0.739E+00 -.526E-24   -.228E-05 -.574E-05 -.362E-12
   0.215E+02 0.206E+02 0.170E-07   -.216E+02 -.205E+02 0.000E+00   -.739E+00 -.632E+00 -.602E-25   0.574E-05 0.228E-05 0.370E-12
   -.215E+02 -.206E+02 -.170E-07   0.216E+02 0.205E+02 0.711E-14   0.739E+00 0.632E+00 0.972E-24   -.574E-05 -.228E-05 -.330E-12
   0.153E-13 0.304E-14 0.671E-13   0.103E-12 0.160E-13 -.400E-13   0.000E+00 0.000E+00 0.102E-24   0.428E-13 0.939E-13 -.275E-12
   0.140E-12 0.473E-13 0.104E-11   0.568E-13 0.338E-13 -.107E-13   0.331E-23 0.000E+00 0.248E-23   0.910E-13 -.121E-14 -.628E-13
   0.279E-13 0.133E-11 0.919E-13   0.355E-13 -.222E-13 -.320E-13   0.000E+00 0.662E-23 0.231E-24   -.455E-13 -.118E-12 -.320E-12
   -.107E-13 0.118E-11 0.995E-12   0.853E-13 -.462E-13 -.142E-13   0.000E+00 0.000E+00 0.136E-23   -.215E-12 -.426E-13 -.393E-13
   0.182E-11 -.312E-12 0.661E-11   0.577E-13 -.626E-13 -.338E-13   0.000E+00 0.662E-23 0.333E-24   -.841E-13 0.243E-12 -.237E-12
   -.190E-11 0.260E-11 -.765E-11   0.462E-13 -.586E-13 -.124E-13   0.000E+00 0.165E-23 0.141E-23   -.122E-12 0.272E-12 -.133E-12
   0.257E-11 -.335E-11 -.304E-12   0.110E-12 0.417E-13 -.497E-13   0.000E+00 0.000E+00 -.187E-23   0.220E-13 -.262E-12 -.346E-12
   0.187E-11 -.234E-11 -.107E-11   0.711E-13 0.249E-13 -.213E-13   0.331E-23 0.000E+00 -.412E-24   0.191E-12 -.314E-12 -.140E-13
   0.131E+02 0.696E+00 -.143E+02   -.133E+02 -.694E+00 0.145E+02   0.905E+00 0.713E-02 -.940E+00   -.683E-06 0.580E-06 0.322E-05
   0.131E+02 0.696E+00 0.143E+02   -.133E+02 -.694E+00 -.145E+02   0.905E+00 0.713E-02 0.940E+00   -.683E-06 0.580E-06 -.322E-05
   -.131E+02 -.696E+00 0.143E+02   0.133E+02 0.694E+00 -.145E+02   -.905E+00 -.713E-02 0.940E+00   0.683E-06 -.580E-06 -.322E-05
   -.131E+02 -.696E+00 -.143E+02   0.133E+02 0.694E+00 0.145E+02   -.905E+00 -.713E-02 -.940E+00   0.683E-06 -.580E-06 0.322E-05
   -.131E+02 -.696E+00 0.143E+02   0.133E+02 0.694E+00 -.145E+02   -.905E+00 -.713E-02 0.940E+00   0.683E-06 -.580E-06 -.322E-05
   -.131E+02 -.696E+00 -.143E+02   0.133E+02 0.694E+00 0.145E+02   -.905E+00 -.713E-02 -.940E+00   0.683E-06 -.580E-06 0.322E-05
   0.131E+02 0.696E+00 -.143E+02   -.133E+02 -.694E+00 0.145E+02   0.905E+00 0.713E-02 -.940E+00   -.683E-06 0.580E-06 0.322E-05
   0.131E+02 0.696E+00 0.143E+02   -.133E+02 -.694E+00 -.145E+02   0.905E+00 0.713E-02 0.940E+00   -.683E-06 0.580E-06 -.322E-05
   -.186E+02 0.108E+02 0.236E-07   0.188E+02 -.111E+02 0.187E-13   -.983E+00 0.113E+01 -.688E-25   0.445E-06 0.812E-06 0.347E-12
   0.186E+02 -.108E+02 -.236E-07   -.188E+02 0.111E+02 0.258E-13   0.983E+00 -.113E+01 0.174E-25   -.445E-06 -.812E-06 -.230E-12
   0.108E+02 -.186E+02 0.236E-07   -.111E+02 0.188E+02 0.000E+00   0.113E+01 -.983E+00 0.275E-24   0.812E-06 0.445E-06 0.422E-12
   -.108E+02 0.186E+02 -.236E-07   0.111E+02 -.188E+02 0.142E-13   -.113E+01 0.983E+00 -.639E-25   -.812E-06 -.445E-06 -.282E-12
   0.108E+02 -.186E+02 0.236E-07   -.111E+02 0.188E+02 0.000E+00   0.113E+01 -.983E+00 0.252E-24   0.812E-06 0.445E-06 0.407E-12
   -.108E+02 0.186E+02 -.236E-07   0.111E+02 -.188E+02 0.107E-13   -.113E+01 0.983E+00 0.142E-25   -.812E-06 -.445E-06 -.294E-12
   -.186E+02 0.108E+02 0.236E-07   0.188E+02 -.111E+02 0.142E-13   -.983E+00 0.113E+01 -.161E-24   0.445E-06 0.812E-06 0.365E-12
   0.186E+02 -.108E+02 -.236E-07   -.188E+02 0.111E+02 0.249E-13   0.983E+00 -.113E+01 -.392E-24   -.445E-06 -.812E-06 -.225E-12
   -.696E+00 -.131E+02 0.143E+02   0.694E+00 0.133E+02 -.145E+02   -.713E-02 -.905E+00 0.940E+00   -.580E-06 0.683E-06 -.322E-05
   -.696E+00 -.131E+02 -.143E+02   0.694E+00 0.133E+02 0.145E+02   -.713E-02 -.905E+00 -.940E+00   -.580E-06 0.683E-06 0.322E-05
   0.696E+00 0.131E+02 -.143E+02   -.694E+00 -.133E+02 0.145E+02   0.713E-02 0.905E+00 -.940E+00   0.580E-06 -.683E-06 0.322E-05
   0.696E+00 0.131E+02 0.143E+02   -.694E+00 -.133E+02 -.145E+02   0.713E-02 0.905E+00 0.940E+00   0.580E-06 -.683E-06 -.322E-05
   0.696E+00 0.131E+02 -.143E+02   -.694E+00 -.133E+02 0.145E+02   0.713E-02 0.905E+00 -.940E+00   0.580E-06 -.683E-06 0.322E-05
   0.696E+00 0.131E+02 0.143E+02   -.694E+00 -.133E+02 -.145E+02   0.713E-02 0.905E+00 0.940E+00   0.580E-06 -.683E-06 -.322E-05
   -.696E+00 -.131E+02 0.143E+02   0.694E+00 0.133E+02 -.145E+02   -.713E-02 -.905E+00 0.940E+00   -.580E-06 0.683E-06 -.322E-05
   -.696E+00 -.131E+02 -.143E+02   0.694E+00 0.133E+02 0.145E+02   -.713E-02 -.905E+00 -.940E+00   -.580E-06 0.683E-06 0.322E-05
   0.641E-11 0.784E-11 -.660E-11   -.238E-13 -.462E-13 -.266E-13   -.333E-15 0.111E-15 0.222E-15   0.499E-13 -.735E-13 -.130E-11

 POSITION                                       TOTAL-FORCE (eV/Angst)
      2.93384      2.93384      2.93384        -0.836742     -0.531462      0.000000
      2.93384      2.93384      8.80151         0.836742      0.531462      0.000000
      2.93384      8.80151      2.93384        -0.531462     -0.836742      0.000000
      2.93384      8.80151      8.80151         0.531462      0.836742      0.000000
      8.80151      2.93384      2.93384        -0.531462     -0.836742      0.000000
      8.80151      2.93384      8.80151         0.531462      0.836742      0.000000
      8.80151      8.80151      2.93384        -0.836742     -0.531462      0.000000
      8.80151      8.80151      8.80151         0.836742      0.531462      0.000000
      0.00000      0.00000      0.00000         0.000000      0.000000      0.000000
      0.00000      0.00000      5.86768         0.000000     -0.000000      0.000000
      0.00000      5.86768      0.00000         0.000000      0.000000      0.000000
      0.00000      5.86768      5.86768         0.000000      0.000000      0.000000
      5.86768      0.00000      0.00000        -0.000000     -0.000000      0.000000
      5.86768      0.00000      5.86768        -0.000000      0.000000      0.000000
      5.86768      5.86768      0.00000        -0.000000      0.000000      0.000000
      5.86768      5.86768      5.86768         0.000000      0.000000      0.000000
     11.07524      2.93384      0.73346         0.706939      0.009136     -0.701169
     11.07524      2.93384      5.13422         0.706939      0.009136      0.701169
      0.66011      8.80151     11.00189        -0.706939     -0.009136      0.701169
      0.66011      8.80151      6.60114        -0.706939     -0.009136     -0.701169
      6.52779      2.93384     11.00189        -0.706939     -0.009136      0.701169
      6.52779      2.93384      6.60114        -0.706939     -0.009136     -0.701169
      5.20756      8.80151      0.73346         0.706939      0.009136     -0.701169
      5.20756      8.80151      5.13422         0.706939      0.009136      0.701169
      0.73346     11.00189      2.93384        -0.824579      0.905787      0.000000
     11.00189      0.73346      8.80151         0.824579     -0.905787      0.000000
     11.00189      6.60114      2.93384         0.905787     -0.824579      0.000000
      0.73346      5.13422      8.80151        -0.905787      0.824579      0.000000
      5.13422      0.73346      2.93384         0.905787     -0.824579      0.000000
      6.60114     11.00189      8.80151        -0.905787      0.824579      0.000000
      6.60114      5.13422      2.93384        -0.824579      0.905787      0.000000
      5.13422      6.60114      8.80151         0.824579     -0.905787      0.000000
      2.93384      0.66011     11.00189        -0.009136     -0.706939      0.701169
      2.93384      0.66011      6.60114        -0.009136     -0.706939     -0.701169
      2.93384      5.20756      0.73346         0.009136      0.706939     -0.701169
      2.93384      5.20756      5.13422         0.009136      0.706939      0.701169
      8.80151     11.07524      0.73346         0.009136      0.706939     -0.701169
      8.80151     11.07524      5.13422         0.009136      0.706939      0.701169
      8.80151      6.52779     11.00189        -0.009136     -0.706939      0.701169
      8.80151      6.52779      6.60114        -0.009136     -0.706939     -0.701169
    total drift:                                0.000000      0.000000     -0.000000

  FREE ENERGIE OF THE ION-ELECTRON SYSTEM (eV)
  free  energy   TOTEN  =     -1424.68409301 eV

  energy  without entropy=    -1424.68409301  energy(sigma->0) =    -1424.68409301

 stress matrix after NEB project (eV)
      6.10315    -12.67577      0.00000
    -12.67577      6.10315      0.00000
      0.00000      0.00000      1.99027
  FORCES: max atom, RMS     1.224900    0.945086
  FORCE total and by dimension    5.977250    0.905787
  Stress total and by dimension   19.995210   12.675773

 total charge

# of ion       s       p       d       tot
    1        1.799   4.724   0.047   6.570
    2        1.799   4.724   0.047   6.570
    3        1.799   4.724   0.047   6.570
    4        1.799   4.724   0.047   6.570
    5        1.799   4.724   0.047   6.570
    6        1.799   4.724   0.047   6.570
    7        1.799   4.724   0.047   6.570
    8        1.799   4.724   0.047   6.570
    9        1.553   0.375   9.825  11.753
   10        1.553   0.375   9.825  11.753
   11        1.553   0.375   9.825  11.753
   12        1.553   0.375   9.825  11.753
   13        1.553   0.375   9.825  11.753
   14        1.553   0.375   9.825  11.753
   15        1.553   0.375   9.825  11.753
   16        1.553   0.375   9.825  11.753
   17        1.614   3.298   0.005   4.917
   18        1.614   3.298   0.005   4.917
   19        1.614   3.298   0.005   4.917
   20        1.614   3.298   0.005   4.917
   21        1.614   3.298   0.005   4.917
   22        1.614   3.298   0.005   4.917
   23        1.614   3.298   0.005   4.917
   24        1.614   3.298   0.005   4.917
   25        1.615   3.289   0.005   4.909
   26        1.615   3.289   0.005   4.909
   27        1.615   3.288   0.005   4.909
   28        1.615   3.288   0.005   4.909
   29        1.615   3.288   0.005   4.909
   30        1.615   3.288   0.005   4.909
   31        1.615   3.289   0.005   4.909
   32        1.615   3.289   0.005   4.909
   33        1.615   3.275   0.006   4.896
   34        1.615   3.275   0.006   4.896
   35        1.615   3.275   0.006   4.896
   36        1.615   3.275   0.006   4.896
   37        1.615   3.275   0.006   4.896
   38        1.615   3.275   0.006   4.896
   39        1.615   3.275   0.006   4.896
   40        1.615   3.275   0.006   4.896
tot         65.575 119.683  79.104 264.363