 vasp.5.4.4.18Apr17-6-g9f103f2a35 (build Jun 22 2020 09:27:21) complex

 INCAR:
 POTCAR:    PAW_PBE Cs_sv 08Apr2002
 POTCAR:    PAW_PBE Pb_d 06Sep2000
 POTCAR:    PAW_PBE Br 06Sep2000
 POTCAR:    PAW_PBE Cs_sv 08Apr2002
   VRHFIN =Cs: 5s5p6s

   TITEL  = PAW_PBE Cs_sv 08Apr2002
   POMASS =  132.900; ZVAL   =    9.000    mass and valenz
   ENMAX  =  220.318; ENMIN  =  165.238 eV

   TITEL  = PAW_PBE Pb_d 06Sep2000
   POMASS =  207.200; ZVAL   =   14.000    mass and valenz
   ENMAX  =  237.835; ENMIN  =  178.376 eV

   TITEL  = PAW_PBE Br 06Sep2000
   POMASS =   79.904; ZVAL   =    7.000    mass and valenz
   ENMAX  =  216.285; ENMIN  =  162.214 eV

 Optimization of the real space projectors (new method)

 maximal supplied QI-value         = 15.12
 optimisation between [QCUT,QGAM] = [  8.77, 17.69] = [ 21.53, 87.61] Ry
 Optimized for a Real-space Cutoff    1.85 Angstroem

   l    n(q)    QCUT    max X(q) W(low)/X(q) W(high)/X(q)  e(spline)
   0     10     8.768    25.322    0.81E-04    0.51E-04    0.48E-06
   0     10     8.768    99.187    0.78E-04    0.50E-04    0.47E-06
   1      9     8.768    11.761    0.21E-03    0.20E-03    0.37E-06
   1      9     8.768     8.275    0.24E-03    0.22E-03    0.41E-06
   2      9     8.768     3.829    0.23E-04    0.15E-03    0.18E-06
 Optimization of the real space projectors (new method)

[...]

   l    n(q)    QCUT    max X(q) W(low)/X(q) W(high)/X(q)  e(spline)
   2      7     8.768     3.846    0.48E-04    0.11E-03    0.11E-06
   2      7     8.768     8.593    0.20E-03    0.22E-04    0.24E-06
   0      8     8.768    20.082    0.68E-04    0.88E-04    0.41E-07
   0      8     8.768     8.597    0.89E-04    0.13E-03    0.59E-07
   1      8     8.768    33.223    0.15E-03    0.53E-04    0.87E-07
   1      8     8.768    15.899    0.14E-03    0.44E-04    0.78E-07
 Optimization of the real space projectors (new method)

 maximal supplied QI-value         = 17.95
 optimisation between [QCUT,QGAM] = [  8.80, 17.59] = [ 21.67, 86.68] Ry
 Optimized for a Real-space Cutoff    1.59 Angstroem

   l    n(q)    QCUT    max X(q) W(low)/X(q) W(high)/X(q)  e(spline)
   0      8     8.797   175.082    0.82E-04    0.14E-03    0.89E-07
   0      8     8.797   174.004    0.79E-04    0.14E-03    0.86E-07
   1      8     8.797    54.315    0.16E-03    0.14E-04    0.30E-06
   1      8     8.797    42.441    0.16E-03    0.14E-04    0.30E-06
   2      7     8.797     3.596    0.92E-04    0.15E-03    0.85E-07
  PAW_PBE Cs_sv 08Apr2002               :
  PAW_PBE Pb_d 06Sep2000                :
  PAW_PBE Br 06Sep2000                  :

 POSCAR: Cs8 Pb8 Br24
  positions in direct lattice

 METAGGA = SCAN     LMAXTAU =  6    LMIXTAU =  F

 VTST: version 3.2, (02/03/18)

 CHAIN: initializing optimizer

 OPT: Using VASP Conjugate-Gradient optimizer
 CHAIN: Read ICHAIN            0

 POSCAR: Cs8 Pb8 Br24
  positions in direct lattice

 ion  position               nearest neighbor table
   1  0.250  0.250  0.250-
   2  0.250  0.250  0.750-
   3  0.250  0.750  0.250-
   4  0.250  0.750  0.750-
   5  0.750  0.250  0.250-
   6  0.750  0.250  0.750-
   7  0.750  0.750  0.250-
   8  0.750  0.750  0.750-
   9  0.000  0.000  0.000-  25 2.93  26 2.93  17 2.94  19 2.94  33 2.94  37 2.94
  10  0.000  0.000  0.500-  25 2.93  26 2.93  18 2.94  20 2.94  34 2.94  38 2.94
  11  0.000  0.500  0.000-  27 2.93  28 2.93  17 2.94  19 2.94  35 2.94  39 2.94
  12  0.000  0.500  0.500-  27 2.93  28 2.93  18 2.94  20 2.94  36 2.94  40 2.94
  13  0.500  0.000  0.000-  29 2.93  30 2.93  21 2.94  23 2.94  33 2.94  37 2.94
  14  0.500  0.000  0.500-  29 2.93  30 2.93  22 2.94  24 2.94  34 2.94  38 2.94
  15  0.500  0.500  0.000-  31 2.93  32 2.93  21 2.94  23 2.94  35 2.94  39 2.94
  16  0.500  0.500  0.500-  31 2.93  32 2.93  22 2.94  24 2.94  36 2.94  40 2.94
  17  0.989  0.250  0.000-   9 2.94  11 2.94
  18  0.989  0.250  0.500-  10 2.94  12 2.94
  19  0.011  0.750  0.000-   9 2.94  11 2.94
  20  0.011  0.750  0.500-  10 2.94  12 2.94
  21  0.511  0.250  0.000-  13 2.94  15 2.94
  22  0.511  0.250  0.500-  14 2.94  16 2.94
  23  0.489  0.750  0.000-  13 2.94  15 2.94
  24  0.489  0.750  0.500-  14 2.94  16 2.94
  25  0.000  0.000  0.250-   9 2.93  10 2.93
  26  0.000  0.000  0.750-   9 2.93  10 2.93
  27  0.000  0.500  0.250-  11 2.93  12 2.93
  28  0.000  0.500  0.750-  11 2.93  12 2.93
  29  0.500  0.000  0.250-  13 2.93  14 2.93
  30  0.500  0.000  0.750-  13 2.93  14 2.93
  31  0.500  0.500  0.250-  15 2.93  16 2.93
  32  0.500  0.500  0.750-  15 2.93  16 2.93
  33  0.250  0.011  0.000-   9 2.94  13 2.94
  34  0.250  0.011  0.500-  10 2.94  14 2.94
  35  0.250  0.489  0.000-  11 2.94  15 2.94
  36  0.250  0.489  0.500-  12 2.94  16 2.94
  37  0.750  0.989  0.000-   9 2.94  13 2.94
  38  0.750  0.989  0.500-  10 2.94  14 2.94
  39  0.750  0.511  0.000-  11 2.94  15 2.94
  40  0.750  0.511  0.500-  12 2.94  16 2.94

  LATTYP: Found a simple cubic cell.
 ALAT       =    11.7353520000

  Lattice vectors:

 A1 = (  11.7353520000,   0.0000000000,   0.0000000000)
 A2 = (   0.0000000000,  11.7353520000,   0.0000000000)
 A3 = (   0.0000000000,   0.0000000000,  11.7353520000)

Analysis of symmetry for initial positions (statically):
 Subroutine PRICEL returns following result:

  LATTYP: Found a simple tetragonal cell.
 ALAT       =     8.2981469788
 C/A-ratio  =     0.7071067812

[...]

   4 primitive cells build up your supercell.

 Routine SETGRP: Setting up the symmetry group for a
 simple cubic supercell.

 Subroutine GETGRP returns: Found 16 space group operations
 (whereof  8 operations were pure point group operations)
 out of a pool of 48 trial point group operations.

The static configuration has the point symmetry C_4h.
 The point group associated with its full space group is D_4h.

Analysis of symmetry for dynamics (positions and initial velocities):
 Subroutine PRICEL returns following result:

  LATTYP: Found a simple tetragonal cell.
 ALAT       =     8.2981469788
 C/A-ratio  =     0.7071067812

  Lattice vectors:

 A1 = (   5.8676760000,  -5.8676760000,   0.0000000000)
 A2 = (  -5.8676760000,  -5.8676760000,   0.0000000000)
 A3 = (   0.0000000000,   0.0000000000,  -5.8676760000)

   4 primitive cells build up your supercell.

 Routine SETGRP: Setting up the symmetry group for a
 simple cubic supercell.

 Subroutine GETGRP returns: Found 16 space group operations
 (whereof  8 operations were pure point group operations)
 out of a pool of 48 trial point group operations.

The dynamic configuration has the point symmetry C_4h.
 The point group associated with its full space group is D_4h.

 Subroutine INISYM returns: Found 16 space group operations
 (whereof  8 operations are pure point group operations),
 and found     4 'primitive' translations

 KPOINTS: 1x1x1

Automatic generation of k-mesh.
Space group operators:
 irot       det(A)        alpha          n_x          n_y          n_z        tau_x        tau_y        tau_z
    1     1.000000     0.000000     1.000000     0.000000     0.000000    -0.000000    -0.000000    -0.000000
    2    -1.000000     0.000000     1.000000     0.000000     0.000000    -0.000000    -0.000000    -0.000000
    3     1.000000    90.000000     0.000000     0.000000    -1.000000    -0.000000    -0.000000    -0.000000
    4    -1.000000    90.000000     0.000000     0.000000    -1.000000    -0.000000    -0.000000    -0.000000
    5     1.000000   180.000000     0.000000     0.000000     1.000000    -0.000000    -0.000000    -0.000000
    6    -1.000000   180.000000     0.000000     0.000000     1.000000    -0.000000    -0.000000    -0.000000
    7     1.000000    90.000000     0.000000     0.000000     1.000000    -0.000000    -0.000000    -0.000000
    8    -1.000000    90.000000     0.000000     0.000000     1.000000    -0.000000    -0.000000    -0.000000
    9     1.000000   180.000000     1.000000     0.000000     0.000000     0.000000    -0.500000    -0.000000
   10    -1.000000   180.000000     1.000000     0.000000     0.000000     0.000000    -0.500000    -0.000000
   11     1.000000   180.000000     0.707107     0.707107     0.000000     0.000000    -0.500000    -0.000000
   12    -1.000000   180.000000     0.707107     0.707107     0.000000     0.000000    -0.500000    -0.000000
   13     1.000000   180.000000     0.000000     1.000000     0.000000     0.000000    -0.500000    -0.000000
   14    -1.000000   180.000000     0.000000     1.000000     0.000000     0.000000    -0.500000    -0.000000
   15     1.000000   180.000000     0.707107    -0.707107     0.000000     0.000000    -0.500000    -0.000000
   16    -1.000000   180.000000     0.707107    -0.707107     0.000000     0.000000    -0.500000    -0.000000

 Subroutine IBZKPT returns following result:

 Found      6 irreducible k-points:

 Following reciprocal coordinates:
            Coordinates               Weight
  0.000000  0.000000  0.000000      1.000000
  0.500000  0.000000  0.000000      2.000000
  0.500000  0.500000  0.000000      1.000000
  0.000000  0.000000  0.500000      1.000000
  0.500000  0.000000  0.500000      2.000000
  0.500000  0.500000  0.500000      1.000000

 Following cartesian coordinates:
            Coordinates               Weight
  0.000000  0.000000  0.000000      1.000000
  0.042606  0.000000  0.000000      2.000000
  0.042606  0.042606  0.000000      1.000000
  0.000000  0.000000  0.042606      1.000000
  0.042606  0.000000  0.042606      2.000000
  0.042606  0.042606  0.042606      1.000000

 SYSTEM =  CsPbBr3 cubic bulk
 POSCAR =  Cs8 Pb8 Br24

 Startparameter for this run:
   NWRITE =      2    write-flag & timer
   PREC   = accura    normal or accurate (medium, high low for compatibility)
   ISTART =      0    job   : 0-new  1-cont  2-samecut
   ICHARG =      2    charge: 1-file 2-atom 10-const
   ISPIN  =      1    spin polarized calculation?
   LNONCOLLINEAR =      F non collinear calculations
   LSORBIT =      F    spin-orbit coupling
   INIWAV =      1    electr: 0-lowe 1-rand  2-diag
   LASPH  =      T    aspherical Exc in radial PAW
   METAGGA=      F    non-selfconsistent MetaGGA calc.

 Electronic Relaxation 1
   ENCUT  =  300.0 eV  22.05 Ry    4.70 a.u.  16.57 16.57 16.57*2*pi/ulx,y,z
   ENINI  =  300.0     initial cutoff
   ENAUG  =  503.9 eV  augmentation charge cutoff
   NELM   =    200;   NELMIN=  2; NELMDL= -5     # of ELM steps
   EDIFF  = 0.1E-05   stopping-criterion for ELM
   LREAL  =      T    real-space projection
   NLSPLINE    = F    spline interpolate recip. space projectors
   LCOMPAT=      F    compatible to vasp.4.4
   GGA_COMPAT  = T    GGA compatible to vasp.4.4-vasp.4.6
   LMAXPAW     = -100 max onsite density
   LMAXMIX     =    2 max onsite mixed and CHGCAR
   VOSKOWN=      0    Vosko Wilk Nusair interpolation
   ROPT   =   -0.00025  -0.00025  -0.00025
 Ionic relaxation
   EDIFFG = -.1E-01   stopping-criterion for IOM
   NSW    =      0    number of steps for IOM
   NBLOCK =      1;   KBLOCK =      1    inner block; outer block
   IBRION =     -1    ionic relax: 0-MD 1-quasi-New 2-CG
   NFREE  =      1    steps in history (QN), initial steepest desc. (CG)
   ISIF   =      3    stress and relaxation
[...]
     23     -16.2236      2.00000
     24     -16.2236      2.00000
     25     -16.0574      2.00000
     26     -16.0574      2.00000
     27     -16.0574      2.00000
     28     -16.0574      2.00000
     29     -16.0574      2.00000
     30     -16.0574      2.00000
     31     -16.0574      2.00000
     32     -16.0574      2.00000
     33     -16.0572      2.00000
     34     -16.0572      2.00000
     35     -16.0572      2.00000
     36     -16.0572      2.00000
     37     -16.0572      2.00000
     38     -16.0572      2.00000
     39     -16.0572      2.00000
     40     -16.0572      2.00000
     41     -16.0571      2.00000
     42     -16.0571      2.00000
     43     -16.0571      2.00000
     44     -16.0571      2.00000
     45     -16.0571      2.00000
     46     -16.0571      2.00000
     47     -16.0571      2.00000
     48     -16.0571      2.00000
     49     -14.2063      2.00000
     50     -14.2063      2.00000
     51     -14.2063      2.00000
     52     -14.2063      2.00000
     53     -14.2063      2.00000
     54     -14.2063      2.00000
     55     -14.2063      2.00000
     56     -14.2063      2.00000
     57     -13.8060      2.00000
     58     -13.8060      2.00000
     59     -13.8060      2.00000
     60     -13.8060      2.00000
[...]
    202       6.0420      0.00000
    203       6.0420      0.00000
    204       6.0420      0.00000
    205       6.0420      0.00000
    206       6.0420      0.00000
    207       6.0420      0.00000
    208       6.0420      0.00000
    209       6.5593      0.00000
    210       6.5601      0.00000
    211       6.5609      0.00000
    212       6.5616      0.00000
    213       6.5634      0.00000
    214       6.5652      0.00000
    215       6.5671      0.00000
    216       6.5676      0.00000

 soft charge-density along one line, spin component           1
         0         1         2         3         4         5         6         7         8         9
 total charge-density along one line

------------------------ aborting loop because EDIFF is reached ----------------------------------------

 total charge

# of ion       s       p       d       tot
    1        1.781   4.717   0.010   6.508
    2        1.781   4.717   0.010   6.508
    3        1.781   4.717   0.010   6.508
    4        1.781   4.717   0.010   6.508
    5        1.781   4.717   0.010   6.508
    6        1.781   4.717   0.010   6.508
    7        1.781   4.717   0.010   6.508
    8        1.781   4.717   0.010   6.508
    9        1.555   0.449   9.841  11.846
   10        1.555   0.449   9.841  11.846
   11        1.555   0.449   9.841  11.846
   12        1.555   0.449   9.841  11.846
   13        1.555   0.449   9.841  11.846
   14        1.555   0.449   9.841  11.846
   15        1.555   0.449   9.841  11.846
   16        1.555   0.449   9.841  11.846
   17        1.613   3.311   0.007   4.931
   18        1.613   3.311   0.007   4.931
   19        1.613   3.311   0.007   4.931
   20        1.613   3.311   0.007   4.931
   21        1.613   3.311   0.007   4.931
   22        1.613   3.311   0.007   4.931
   23        1.613   3.311   0.007   4.931
   24        1.613   3.311   0.007   4.931
   25        1.615   3.288   0.008   4.911
   26        1.615   3.288   0.008   4.911
   27        1.615   3.288   0.008   4.911
   28        1.615   3.288   0.008   4.911
   29        1.615   3.288   0.008   4.911
   30        1.615   3.288   0.008   4.911
   31        1.615   3.288   0.008   4.911
   32        1.615   3.288   0.008   4.911
   33        1.617   3.265   0.008   4.890
   34        1.617   3.265   0.008   4.890
   35        1.617   3.265   0.008   4.890
   36        1.617   3.265   0.008   4.890
   37        1.617   3.265   0.008   4.890
   38        1.617   3.265   0.008   4.890
   39        1.617   3.265   0.008   4.890
   40        1.617   3.265   0.008   4.890
tot         65.452 120.245  78.991 264.688

  FORCE on cell =-STRESS in cart. coord.  units (eV):
  Direction    XX          YY          ZZ          XY          YZ          ZX
  Alpha Z   892.99476   892.99476   892.99476
  Ewald   -6072.14377 -6072.14377 -6053.33201    -0.00000     0.00000    -0.00000
  Hartree  2529.07088  2529.07088  2535.67616    -0.00000    -0.00000    -0.00000
  E(xc)   -1479.08512 -1478.74836 -1478.72645     0.00000    -0.00000    -0.00000
  Local   -2991.47897 -2991.47897 -3017.16363     0.00000     0.00000     0.00000
  n-local  1809.49584  1806.65326  1808.50706     0.00000     0.00000    -0.00000
  augment   811.23217   811.23217   811.35789     0.00000    -0.00002    -0.00002
  Kinetic  4498.32556  4512.11386  4505.48649     0.00000    -0.00001    -0.00000
  Fock        0.00000     0.00000     0.00000     0.00000     0.00000     0.00000
  Total       4.05258     4.05258     4.80027     0.00000     0.00000     0.00000
  in kB       4.01748     4.01748     4.75869     0.00000     0.00000     0.00000

 VOLUME and BASIS-vectors are now :
  energy-cutoff  :      300.00
  volume of cell :     1616.17
      direct lattice vectors                 reciprocal lattice vectors
    11.735352000  0.000000000  0.000000000     0.085212612  0.000000000  0.000000000
     0.000000000 11.735352000  0.000000000     0.000000000  0.085212612  0.000000000
     0.000000000  0.000000000 11.735352000     0.000000000  0.000000000  0.085212612

  length of vectors
    11.735352000 11.735352000 11.735352000     0.085212612  0.085212612  0.085212612

 FORCES acting on ions
    electron-ion (+dipol)            ewald-force                    non-local-force                 convergence-correction
   0.176E-13 -.603E-12 -.678E-12   0.232E-13 -.444E-13 0.000E+00   -.103E-24 0.000E+00 -.212E-24   0.388E-13 0.161E-13 0.145E-12
   0.116E-13 0.894E-12 -.934E-12   0.170E-13 -.444E-13 0.711E-14   -.207E-24 0.000E+00 0.104E-24   0.174E-13 0.750E-13 -.102E-12
   0.238E-13 0.588E-12 -.607E-12   -.221E-13 -.178E-13 -.142E-13   0.000E+00 0.000E+00 0.241E-24   -.135E-13 0.297E-13 0.152E-12
   0.283E-13 -.924E-12 -.901E-12   -.434E-13 -.178E-13 -.711E-14   0.258E-25 0.000E+00 0.464E-25   -.327E-13 -.289E-13 -.111E-12
   -.255E-14 0.296E-11 -.255E-11   -.308E-13 -.711E-14 -.142E-13   0.000E+00 0.000E+00 -.177E-24   -.124E-13 0.442E-13 0.181E-12
   -.116E-13 0.229E-11 0.805E-12   -.103E-13 -.711E-14 -.711E-14   0.258E-25 0.207E-24 -.189E-24   0.907E-14 0.108E-12 -.140E-12
   -.871E-14 -.957E-12 0.368E-11   0.217E-13 -.497E-13 -.711E-14   -.517E-24 0.000E+00 -.211E-24   0.376E-13 -.114E-14 0.170E-12
   0.145E-14 -.109E-11 -.557E-11   0.288E-13 -.497E-13 0.000E+00   0.207E-24 0.000E+00 -.210E-24   0.564E-13 -.643E-13 -.132E-12
   -.181E-13 0.296E-13 0.141E-13   0.137E-12 0.808E-13 0.332E-13   0.000E+00 0.199E-22 0.435E-24   0.111E-12 0.150E-12 -.325E-12
   -.105E-13 -.252E-14 0.114E-11   0.165E-12 0.826E-13 0.349E-13   -.265E-22 0.993E-23 0.883E-24   0.543E-13 0.168E-12 -.746E-13
   -.692E-14 0.114E-11 0.818E-14   0.799E-13 0.904E-13 0.314E-13   -.331E-22 0.298E-22 0.822E-24   0.358E-13 -.182E-12 -.425E-12
   -.630E-14 0.114E-11 0.115E-11   0.114E-12 0.915E-13 0.332E-13   -.662E-23 0.000E+00 0.818E-24   -.130E-13 -.206E-12 0.270E-13
   0.114E-11 -.380E-13 0.627E-11   0.126E-12 0.797E-13 0.296E-13   -.827E-23 -.232E-22 0.844E-24   -.580E-13 0.269E-12 -.274E-12
   0.113E-11 -.163E-13 -.769E-11   0.906E-13 0.848E-13 0.314E-13   0.000E+00 0.000E+00 -.969E-25   -.937E-14 0.259E-12 -.112E-12
   0.180E-11 -.314E-11 0.187E-11   0.194E-12 0.879E-13 0.279E-13   0.331E-23 0.331E-22 -.109E-23   0.168E-13 -.303E-12 -.386E-12
   0.126E-11 -.150E-11 -.144E-11   0.171E-12 0.835E-13 0.580E-13   0.331E-23 -.331E-23 0.114E-23   0.677E-13 -.295E-12 -.334E-14
   0.765E+01 -.689E-11 -.335E-07   -.771E+01 -.355E-13 -.891E-14   0.131E-01 -.331E-23 -.129E-23   0.743E-05 0.256E-13 -.823E-13
   0.765E+01 -.293E-11 -.335E-07   -.771E+01 -.355E-13 -.935E-15   0.131E-01 -.165E-23 -.421E-24   0.743E-05 0.357E-13 -.223E-13
   -.765E+01 -.338E-12 0.336E-07   0.771E+01 -.506E-13 -.186E-14   -.131E-01 0.331E-23 0.626E-24   -.743E-05 -.799E-13 -.894E-13
   -.765E+01 -.123E-12 0.336E-07   0.771E+01 -.462E-13 0.612E-14   -.131E-01 0.165E-23 0.363E-24   -.743E-05 -.887E-13 0.380E-14
   -.765E+01 0.466E-11 0.336E-07   0.771E+01 -.400E-13 0.258E-14   -.131E-01 0.331E-23 -.590E-23   -.743E-05 -.305E-13 -.523E-13
   -.765E+01 0.366E-12 0.336E-07   0.771E+01 -.462E-13 -.100E-15   -.131E-01 0.145E-23 -.610E-23   -.743E-05 -.149E-13 -.284E-13
   0.765E+01 0.146E-11 -.336E-07   -.771E+01 -.409E-13 -.802E-14   0.131E-01 -.331E-23 -.433E-24   0.743E-05 -.297E-13 -.778E-13
   0.765E+01 -.471E-12 -.336E-07   -.771E+01 -.320E-13 -.360E-14   0.131E-01 -.165E-23 0.560E-23   0.743E-05 -.426E-13 -.169E-13
   0.287E-16 0.800E-14 0.108E-13   -.266E-13 -.222E-14 -.320E-13   0.000E+00 0.000E+00 -.535E-24   0.283E-13 0.113E-12 0.168E-12
   -.364E-15 0.141E-14 0.846E-13   -.266E-13 -.222E-14 -.249E-13   0.000E+00 0.000E+00 -.134E-24   0.484E-13 0.975E-13 -.283E-13
   0.410E-14 0.112E-12 0.285E-13   -.391E-13 -.324E-13 -.355E-13   0.000E+00 0.000E+00 -.281E-25   0.578E-14 -.919E-13 0.175E-12
   0.399E-14 0.860E-13 0.197E-14   -.320E-13 -.329E-13 -.320E-13   0.000E+00 0.000E+00 -.119E-24   0.214E-13 -.777E-13 -.377E-13
   0.102E-12 -.669E-14 -.713E-11   -.284E-13 -.411E-13 -.329E-13   0.000E+00 0.000E+00 -.274E-25   0.896E-14 0.154E-12 0.145E-12
   0.104E-12 0.247E-14 0.197E-11   -.426E-13 -.404E-13 -.329E-13   0.000E+00 0.000E+00 0.354E-24   -.122E-13 0.138E-12 -.127E-13
   0.221E-12 -.182E-11 -.425E-11   -.355E-14 -.222E-15 -.249E-13   0.000E+00 0.000E+00 0.732E-24   0.341E-13 -.137E-12 0.161E-12
   0.342E-12 -.438E-12 -.225E-12   -.178E-13 -.222E-15 -.249E-13   0.000E+00 0.000E+00 -.602E-25   0.183E-13 -.119E-12 -.267E-13
   -.147E-13 -.765E+01 0.336E-07   -.892E-13 0.771E+01 -.103E-14   -.331E-23 -.131E-01 -.332E-23   -.341E-13 -.743E-05 -.568E-13
   -.156E-13 -.765E+01 0.336E-07   -.643E-13 0.771E+01 0.142E-14   -.165E-23 -.131E-01 -.251E-23   -.538E-13 -.743E-05 -.301E-13
   0.445E-13 0.765E+01 -.336E-07   -.155E-12 -.771E+01 -.126E-14   0.331E-23 0.131E-01 0.247E-23   -.804E-13 0.743E-05 -.118E-12
   0.450E-13 0.765E+01 -.336E-07   -.148E-12 -.771E+01 0.474E-14   0.165E-23 0.131E-01 -.422E-23   -.959E-13 0.743E-05 0.740E-14
   0.797E-13 0.765E+01 -.336E-07   -.140E-12 -.771E+01 -.405E-15   0.331E-23 0.131E-01 -.720E-24   -.705E-13 0.743E-05 -.436E-13
   0.818E-13 0.765E+01 -.336E-07   -.140E-12 -.771E+01 0.205E-14   0.165E-23 0.131E-01 0.168E-23   -.515E-13 0.743E-05 -.546E-13
   0.214E-13 -.765E+01 0.336E-07   -.759E-13 0.771E+01 -.145E-14   -.331E-23 -.131E-01 -.119E-23   -.263E-13 -.743E-05 -.849E-13
   0.237E-13 -.765E+01 0.336E-07   -.758E-13 0.771E+01 0.100E-14   -.165E-23 -.131E-01 -.284E-23   -.125E-13 -.743E-05 0.111E-13
   0.778E-11 -.643E-11 0.176E-10   0.853E-13 -.160E-13 -.124E-13   0.139E-16 -.520E-17 -.149E-22   0.185E-12 -.783E-13 -.160E-11

 POSITION                                       TOTAL-FORCE (eV/Angst)
      2.93384      2.93384      2.93384        -0.000000     -0.000000      0.000000
      2.93384      2.93384      8.80151        -0.000000     -0.000000      0.000000
      2.93384      8.80151      2.93384        -0.000000     -0.000000      0.000000
      2.93384      8.80151      8.80151        -0.000000     -0.000000      0.000000
      8.80151      2.93384      2.93384        -0.000000     -0.000000      0.000000
      8.80151      2.93384      8.80151        -0.000000     -0.000000      0.000000
      8.80151      8.80151      2.93384        -0.000000     -0.000000      0.000000
      8.80151      8.80151      8.80151        -0.000000     -0.000000      0.000000
      0.00000      0.00000      0.00000        -0.000000     -0.000000      0.000000
      0.00000      0.00000      5.86768        -0.000000     -0.000000      0.000000
      0.00000      5.86768      0.00000        -0.000000     -0.000000      0.000000
      0.00000      5.86768      5.86768        -0.000000     -0.000000      0.000000
      5.86768      0.00000      0.00000        -0.000000     -0.000000      0.000000
      5.86768      0.00000      5.86768        -0.000000     -0.000000      0.000000
      5.86768      5.86768      0.00000        -0.000000     -0.000000      0.000000
      5.86768      5.86768      5.86768        -0.000000     -0.000000      0.000000
     11.60333      2.93384      0.00000        -0.045418     -0.000000     -0.000000
     11.60333      2.93384      5.86768        -0.045418     -0.000000     -0.000000
      0.13202      8.80151      0.00000         0.045418     -0.000000      0.000000
      0.13202      8.80151      5.86768         0.045418     -0.000000     -0.000000
      5.99970      2.93384      0.00000         0.045418     -0.000000     -0.000000
      5.99970      2.93384      5.86768         0.045418     -0.000000      0.000000
      5.73565      8.80151      0.00000        -0.045418     -0.000000     -0.000000
      5.73565      8.80151      5.86768        -0.045418     -0.000000     -0.000000
      0.00000      0.00000      2.93384        -0.000000     -0.000000      0.000000
      0.00000      0.00000      8.80151        -0.000000     -0.000000      0.000000
      0.00000      5.86768      2.93384        -0.000000     -0.000000      0.000000
      0.00000      5.86768      8.80151        -0.000000     -0.000000      0.000000
      5.86768      0.00000      2.93384        -0.000000     -0.000000      0.000000
      5.86768      0.00000      8.80151        -0.000000     -0.000000      0.000000
      5.86768      5.86768      2.93384        -0.000000     -0.000000      0.000000
      5.86768      5.86768      8.80151        -0.000000     -0.000000      0.000000
      2.93384      0.13202      0.00000        -0.000000      0.045418      0.000000
      2.93384      0.13202      5.86768        -0.000000      0.045418      0.000000
      2.93384      5.73565      0.00000        -0.000000     -0.045418     -0.000000
      2.93384      5.73565      5.86768        -0.000000     -0.045418     -0.000000
      8.80151     11.60333      0.00000        -0.000000     -0.045418     -0.000000
      8.80151     11.60333      5.86768        -0.000000     -0.045418      0.000000
      8.80151      5.99970      0.00000        -0.000000      0.045418     -0.000000
      8.80151      5.99970      5.86768        -0.000000      0.045418      0.000000
    total drift:                                0.000000     -0.000000      0.000000

  FREE ENERGIE OF THE ION-ELECTRON SYSTEM (eV)
  free  energy   TOTEN  =     -1428.93770891 eV

  energy  without entropy=    -1428.93770891  energy(sigma->0) =    -1428.93770891

 stress matrix after NEB project (eV)
      4.05258      0.00000      0.00000
      0.00000      4.05258     -0.00000
      0.00000      0.00000      4.80027
  FORCES: max atom, RMS     0.045418    0.028725
  FORCE total and by dimension    0.181670    0.045418
  Stress total and by dimension    7.475919    4.800268

 total charge

# of ion       s       p       d       tot
    1        1.781   4.717   0.010   6.508
    2        1.781   4.717   0.010   6.508
    3        1.781   4.717   0.010   6.508
    4        1.781   4.717   0.010   6.508
    5        1.781   4.717   0.010   6.508
    6        1.781   4.717   0.010   6.508
    7        1.781   4.717   0.010   6.508
    8        1.781   4.717   0.010   6.508
    9        1.555   0.449   9.841  11.846
   10        1.555   0.449   9.841  11.846
   11        1.555   0.449   9.841  11.846
   12        1.555   0.449   9.841  11.846
   13        1.555   0.449   9.841  11.846
   14        1.555   0.449   9.841  11.846
   15        1.555   0.449   9.841  11.846
   16        1.555   0.449   9.841  11.846
   17        1.613   3.311   0.007   4.931
   18        1.613   3.311   0.007   4.931
   19        1.613   3.311   0.007   4.931
   20        1.613   3.311   0.007   4.931
   21        1.613   3.311   0.007   4.931
   22        1.613   3.311   0.007   4.931
   23        1.613   3.311   0.007   4.931
   24        1.613   3.311   0.007   4.931
   25        1.615   3.288   0.008   4.911
   26        1.615   3.288   0.008   4.911
   27        1.615   3.288   0.008   4.911
   28        1.615   3.288   0.008   4.911
   29        1.615   3.288   0.008   4.911
   30        1.615   3.288   0.008   4.911
   31        1.615   3.288   0.008   4.911
   32        1.615   3.288   0.008   4.911
   33        1.617   3.265   0.008   4.890
   34        1.617   3.265   0.008   4.890
   35        1.617   3.265   0.008   4.890
   36        1.617   3.265   0.008   4.890
   37        1.617   3.265   0.008   4.890
   38        1.617   3.265   0.008   4.890
   39        1.617   3.265   0.008   4.890
   40        1.617   3.265   0.008   4.890
tot         65.452 120.245  78.991 264.688