 vasp.5.4.4.18Apr17-6-g9f103f2a35 (build Jun 22 2020 09:27:21) complex

 INCAR:
 POTCAR:    PAW_PBE Cs_sv 08Apr2002
 POTCAR:    PAW_PBE Pb_d 06Sep2000
 POTCAR:    PAW_PBE Br 06Sep2000
 POTCAR:    PAW_PBE Cs_sv 08Apr2002
   VRHFIN =Cs: 5s5p6s

   TITEL  = PAW_PBE Cs_sv 08Apr2002
   POMASS =  132.900; ZVAL   =    9.000    mass and valenz
   ENMAX  =  220.318; ENMIN  =  165.238 eV

 POTCAR:    PAW_PBE Pb_d 06Sep2000
   VRHFIN =Pb:

   TITEL  = PAW_PBE Pb_d 06Sep2000
   POMASS =  207.200; ZVAL   =   14.000    mass and valenz
   ENMAX  =  237.835; ENMIN  =  178.376 eV

 POTCAR:    PAW_PBE Br 06Sep2000
   VRHFIN =Br: s2p5

   TITEL  = PAW_PBE Br 06Sep2000
   POMASS =   79.904; ZVAL   =    7.000    mass and valenz
   ENMAX  =  216.285; ENMIN  =  162.214 eV

 Optimization of the real space projectors (new method)

 maximal supplied QI-value         = 15.12
 optimisation between [QCUT,QGAM] = [  8.77, 17.69] = [ 21.53, 87.61] Ry
 Optimized for a Real-space Cutoff    1.85 Angstroem

   l    n(q)    QCUT    max X(q) W(low)/X(q) W(high)/X(q)  e(spline)
   0     10     8.768    25.322    0.81E-04    0.51E-04    0.48E-06
   0     10     8.768    99.187    0.78E-04    0.50E-04    0.47E-06
   1      9     8.768    11.761    0.21E-03    0.20E-03    0.37E-06
   1      9     8.768     8.275    0.24E-03    0.22E-03    0.41E-06
   2      9     8.768     3.829    0.23E-04    0.15E-03    0.18E-06
 Optimization of the real space projectors (new method)

[...]

   l    n(q)    QCUT    max X(q) W(low)/X(q) W(high)/X(q)  e(spline)
   2      7     8.768     3.846    0.48E-04    0.11E-03    0.11E-06
   2      7     8.768     8.593    0.20E-03    0.22E-04    0.24E-06
   0      8     8.768    20.082    0.68E-04    0.88E-04    0.41E-07
   0      8     8.768     8.597    0.89E-04    0.13E-03    0.59E-07
   1      8     8.768    33.223    0.15E-03    0.53E-04    0.87E-07
   1      8     8.768    15.899    0.14E-03    0.44E-04    0.78E-07
 Optimization of the real space projectors (new method)

 maximal supplied QI-value         = 17.95
 optimisation between [QCUT,QGAM] = [  8.80, 17.59] = [ 21.67, 86.68] Ry
 Optimized for a Real-space Cutoff    1.59 Angstroem

   l    n(q)    QCUT    max X(q) W(low)/X(q) W(high)/X(q)  e(spline)
   0      8     8.797   175.082    0.82E-04    0.14E-03    0.89E-07
   0      8     8.797   174.004    0.79E-04    0.14E-03    0.86E-07
   1      8     8.797    54.315    0.16E-03    0.14E-04    0.30E-06
   1      8     8.797    42.441    0.16E-03    0.14E-04    0.30E-06
   2      7     8.797     3.596    0.92E-04    0.15E-03    0.85E-07
  PAW_PBE Cs_sv 08Apr2002               :
  PAW_PBE Pb_d 06Sep2000                :
  PAW_PBE Br 06Sep2000                  :

 POSCAR: Cs4 Pb4 Br12
  positions in direct lattice
  velocities in cartesian coordinates

 METAGGA = SCAN     LMAXTAU =  6    LMIXTAU =  F

 VTST: version 3.2, (02/03/18)

 CHAIN: initializing optimizer

 OPT: Using VASP Conjugate-Gradient optimizer
 CHAIN: Read ICHAIN            0

 POSCAR: Cs4 Pb4 Br12
  positions in direct lattice
  velocities in cartesian coordinates

 ion  position               nearest neighbor table
   1  0.500  0.000  0.000-
   2  0.500  0.500  0.500-
   3  0.000  0.000  0.500-
   4  0.000  0.500  0.000-
   5  0.000  0.000  0.000-  17 2.98  20 2.98  13 2.98  14 2.98   9 2.98  11 2.98
   6  0.000  0.500  0.500-  18 2.98  19 2.98  13 2.98  14 2.98  10 2.98  12 2.98
   7  0.500  0.000  0.500-   9 2.98  11 2.98  18 2.98  19 2.98  15 2.98  16 2.98
   8  0.500  0.500  0.000-  15 2.98  16 2.98  10 2.98  12 2.98  17 2.98  20 2.98
   9  0.224  0.943  0.219-   7 2.98   5 2.98
  10  0.224  0.505  0.781-   6 2.98   8 2.98
  11  0.776  0.057  0.781-   7 2.98   5 2.98
  12  0.776  0.495  0.219-   6 2.98   8 2.98
  13  0.005  0.781  0.724-   5 2.98   6 2.98
  14  0.995  0.219  0.276-   5 2.98   6 2.98
  15  0.557  0.781  0.276-   8 2.98   7 2.98
  16  0.443  0.219  0.724-   8 2.98   7 2.98
  17  0.281  0.276  0.057-   5 2.98   8 2.98
  18  0.281  0.724  0.505-   6 2.98   7 2.98
  19  0.719  0.276  0.495-   6 2.98   7 2.98
  20  0.719  0.724  0.943-   5 2.98   8 2.98

  LATTYP: Found a body centered cubic cell.
 ALAT       =    11.7604933660

  Lattice vectors:

 A1 = (   5.8802466830,   5.8802466830,   5.8802466830)
 A2 = (   5.8802466830,  -5.8802466830,  -5.8802466830)
 A3 = (  -5.8802466830,   5.8802466830,  -5.8802466830)

Analysis of symmetry for initial positions (statically):
 Subroutine PRICEL returns:
 Original cell was already a primitive cell.

 Routine SETGRP: Setting up the symmetry group for a
 body centered cubic supercell.

 Subroutine GETGRP returns: Found 24 space group operations
 (whereof  6 operations were pure point group operations)
 out of a pool of 48 trial point group operations.

The static configuration has the point symmetry S_6 .
 The point group associated with its full space group is T_h .

Analysis of symmetry for dynamics (positions and initial velocities):
 Subroutine PRICEL returns:
 Original cell was already a primitive cell.

 Routine SETGRP: Setting up the symmetry group for a
 body centered cubic supercell.

 Subroutine GETGRP returns: Found 24 space group operations
 (whereof  6 operations were pure point group operations)
 out of a pool of 48 trial point group operations.

The dynamic configuration has the point symmetry S_6 .
 The point group associated with its full space group is T_h .

 Subroutine INISYM returns: Found 24 space group operations
 (whereof  6 operations are pure point group operations),
 and found     1 'primitive' translations

 KPOINTS: 1x1x1

Automatic generation of k-mesh.
Space group operators:
 irot       det(A)        alpha          n_x          n_y          n_z        tau_x        tau_y        tau_z
    1     1.000000     0.000000     1.000000     0.000000     0.000000     0.000000     0.000000     0.000000
    2    -1.000000     0.000000     1.000000     0.000000     0.000000     0.000000     0.000000     0.000000
    3     1.000000   120.000000     0.577350     0.577350     0.577350     0.000000     0.000000     0.000000
    4    -1.000000   120.000000     0.577350     0.577350     0.577350     0.000000     0.000000     0.000000
    5     1.000000   120.000000    -0.577350    -0.577350    -0.577350     0.000000     0.000000     0.000000
    6    -1.000000   120.000000    -0.577350    -0.577350    -0.577350     0.000000     0.000000     0.000000
    7     1.000000   120.000000    -0.577350    -0.577350     0.577350     0.500000     0.500000    -0.000000
    8    -1.000000   120.000000    -0.577350    -0.577350     0.577350     0.500000     0.500000    -0.000000
    9     1.000000   120.000000     0.577350     0.577350    -0.577350     0.500000    -0.000000     0.500000
   10    -1.000000   120.000000     0.577350     0.577350    -0.577350     0.500000    -0.000000     0.500000
   11     1.000000   180.000000     1.000000     0.000000     0.000000     0.500000     0.500000    -0.000000
   12    -1.000000   180.000000     1.000000     0.000000     0.000000     0.500000     0.500000    -0.000000
   13     1.000000   120.000000    -0.577350     0.577350     0.577350     0.000000     0.500000     0.500000
   14    -1.000000   120.000000    -0.577350     0.577350     0.577350     0.000000     0.500000     0.500000
   15     1.000000   120.000000     0.577350    -0.577350    -0.577350     0.500000    -0.000000     0.500000
   16    -1.000000   120.000000     0.577350    -0.577350    -0.577350     0.500000    -0.000000     0.500000
   17     1.000000   120.000000     0.577350    -0.577350     0.577350     0.500000     0.500000    -0.000000
   18    -1.000000   120.000000     0.577350    -0.577350     0.577350     0.500000     0.500000    -0.000000
   19     1.000000   180.000000    -0.000000    -0.000000    -1.000000     0.000000     0.500000     0.500000
   20    -1.000000   180.000000    -0.000000    -0.000000    -1.000000     0.000000     0.500000     0.500000
   21     1.000000   180.000000     0.000000    -1.000000    -0.000000     0.500000    -0.000000     0.500000
   22    -1.000000   180.000000     0.000000    -1.000000    -0.000000     0.500000    -0.000000     0.500000
   23     1.000000   120.000000    -0.577350     0.577350    -0.577350     0.000000     0.500000     0.500000
   24    -1.000000   120.000000    -0.577350     0.577350    -0.577350     0.000000     0.500000     0.500000

 Subroutine IBZKPT returns following result:

 Found      4 irreducible k-points:

 Following reciprocal coordinates:
            Coordinates               Weight
  0.000000  0.000000  0.000000      1.000000
  0.333333  0.000000  0.000000     12.000000
  0.333333  0.333333  0.000000      8.000000
 -0.333333  0.333333  0.333333      6.000000

 Following cartesian coordinates:
            Coordinates               Weight
  0.000000  0.000000 -0.000000      1.000000
  0.028343  0.028343 -0.000000     12.000000
  0.056687  0.028343 -0.028343      8.000000
  0.000000  0.000000 -0.056687      6.000000

 SYSTEM =  CsPbBr3 cubic bulk
 POSCAR =  Cs4 Pb4 Br12

 Startparameter for this run:
   NWRITE =      2    write-flag & timer
   PREC   = accura    normal or accurate (medium, high low for compatibility)
   ISTART =      0    job   : 0-new  1-cont  2-samecut
   ICHARG =      2    charge: 1-file 2-atom 10-const
   ISPIN  =      1    spin polarized calculation?
   LNONCOLLINEAR =      F non collinear calculations
   LSORBIT =      F    spin-orbit coupling
   INIWAV =      1    electr: 0-lowe 1-rand  2-diag
   LASPH  =      T    aspherical Exc in radial PAW
   METAGGA=      F    non-selfconsistent MetaGGA calc.

 Electronic Relaxation 1
   ENCUT  =  300.0 eV  22.05 Ry    4.70 a.u.  14.38 14.38 14.38*2*pi/ulx,y,z
   ENINI  =  300.0     initial cutoff
   ENAUG  =  503.9 eV  augmentation charge cutoff
   NELM   =    200;   NELMIN=  2; NELMDL=  0     # of ELM steps
   EDIFF  = 0.1E-05   stopping-criterion for ELM
   LREAL  =      T    real-space projection
   NLSPLINE    = F    spline interpolate recip. space projectors
   LCOMPAT=      F    compatible to vasp.4.4
   GGA_COMPAT  = T    GGA compatible to vasp.4.4-vasp.4.6
   LMAXPAW     = -100 max onsite density
   LMAXMIX     =    2 max onsite mixed and CHGCAR
   VOSKOWN=      0    Vosko Wilk Nusair interpolation
   ROPT   =   -0.00025  -0.00025  -0.00025
 Ionic relaxation
   EDIFFG = -.1E-01   stopping-criterion for IOM
   NSW    =      0    number of steps for IOM
   NBLOCK =      1;   KBLOCK =      1    inner block; outer block
   IBRION =     -1    ionic relax: 0-MD 1-quasi-New 2-CG
   NFREE  =      1    steps in history (QN), initial steepest desc. (CG)
   ISIF   =      3    stress and relaxation
   IWAVPR =     10    prediction:  0-non 1-charg 2-wave 3-comb
   ISYM   =      2    0-nonsym 1-usesym 2-fastsym
   LCORR  =      T    Harris-Foulkes like correction to forces

   POTIM  = 0.5000    time-step for ionic-motion
   TEIN   =    0.0    initial temperature
   TEBEG  =    0.0;   TEEND  =   0.0 temperature during run
   SMASS  =  -3.00    Nose mass-parameter (am)
   estimated Nose-frequenzy (Omega)   =  0.10E-29 period in steps =****** mass=  -0.237E-26a.u.
   SCALEE = 1.0000    scale energy and forces
[...]

[...]

 eigenvalue-minimisations  :  1056
 total energy-change (2. order) :-0.1239973E+04  (-0.1183338E+04)
 number of electron     176.0000000 magnetization
 augmentation part      176.0000000 magnetization

[...]

 Broyden mixing:
  rms(total) = 0.72083E+00    rms(broyden)= 0.72060E+00
  rms(prec ) = 0.11807E+01
  weight for this iteration     100.00

[...]

 eigenvalues of (default mixing * dielectric matrix)
  average eigenvalue GAMMA=   1.2046
  1.2046

[...]

 eigenvalue-minimisations  :   848
 total energy-change (2. order) :-0.4686022E-05  (-0.2536219E-06)
 number of electron     176.0000004 magnetization
 augmentation part       -2.3297892 magnetization

 Broyden mixing:
  rms(total) = 0.20819E-03    rms(broyden)= 0.20437E-03
  rms(prec ) = 0.23912E-03
  weight for this iteration     100.00

 eigenvalues of (default mixing * dielectric matrix)
  average eigenvalue GAMMA=   1.6634
  2.9458  2.7109  2.0288  2.0288  1.1280  1.1280  0.9229  1.0386  1.0386

[...]

--------------------------------------- Iteration      1(  15)  ---------------------------------------

 eigenvalue-minimisations  :   616
 total energy-change (2. order) : 0.3092487E-06  (-0.3809901E-07)
 number of electron     176.0000004 magnetization
 augmentation part       -2.3297892 magnetization

 Free energy of the ion-electron system (eV)
  alpha Z        PSCENC =       443.63995662
  Ewald energy   TEWEN  =     -9149.12455760
  -Hartree energ DENC   =     -3733.01444568
  -exchange      EXHF   =         0.00000000
  -V(xc)+E(xc)   XCENC  =       481.53007093
  PAW double counting   =     11578.81799507   -12115.26550147
  entropy T*S    EENTRO =        -0.00000000
  eigenvalues    EBANDS =     -1511.63171110
  atomic energy  EATOM  =     13290.28009929
  Solvation  Ediel_sol  =         0.00000000
  free energy    TOTEN  =      -714.76809394 eV

  energy without entropy =     -714.76809394  energy(sigma->0) =     -714.76809394

 average (electrostatic) potential at core
  the test charge radii are     1.1312  1.1541  1.0178
  (the norm of the test charge is              1.0000)
       1 -55.6214       2 -55.4155       3 -55.4155       4 -55.4155       5-101.5908
       6-101.5908       7-101.5908       8-101.5908       9 -69.0068      10 -69.0068
      11 -69.0068      12 -69.0068      13 -69.0068      14 -69.0068      15 -69.0068
      16 -69.0068      17 -69.0068      18 -69.0068      19 -69.0068      20 -69.0068

 E-fermi :   0.3255     XC(G=0):  -8.0154     alpha+bet : -6.9600

 k-point     1 :       0.0000    0.0000    0.0000
  band No.  band energies     occupation
      1     -21.1133      2.00000
      2     -20.9360      2.00000
      3     -20.9344      2.00000
      4     -20.9344      2.00000
      5     -16.4303      2.00000
      6     -16.4303      2.00000
      7     -16.4008      2.00000
      8     -16.4008      2.00000
      9     -16.4007      2.00000
     10     -16.3305      2.00000
     11     -16.3305      2.00000
     12     -16.3305      2.00000
     13     -16.2562      2.00000
     14     -16.2562      2.00000
     15     -16.2553      2.00000
     16     -16.2553      2.00000
     17     -16.2551      2.00000
     18     -16.2550      2.00000
     19     -16.2545      2.00000
     20     -16.2545      2.00000
     21     -16.2545      2.00000
     22     -16.2535      2.00000
     23     -16.2530      2.00000
     24     -16.2530      2.00000
     25     -14.3890      2.00000
     26     -14.0446      2.00000
     27     -14.0446      2.00000
     28     -14.0446      2.00000
     29     -14.0391      2.00000
     30     -14.0391      2.00000
     31     -14.0391      2.00000
     32     -13.9662      2.00000
     33     -13.9662      2.00000
     34     -13.9662      2.00000
     35     -13.7344      2.00000
     36     -13.7344      2.00000
     37      -7.6919      2.00000
     38      -7.6919      2.00000
     39      -7.6919      2.00000
     40      -7.4645      2.00000
     41      -7.4643      2.00000
     42      -7.4643      2.00000
     43      -7.3465      2.00000
     44      -7.3465      2.00000
     45      -7.3465      2.00000
     46      -7.3048      2.00000
     47      -7.3048      2.00000
     48      -7.3048      2.00000
     49      -7.2958      2.00000
     50      -7.2958      2.00000
     51      -7.2958      2.00000
     52      -6.4496      2.00000
     53      -3.3600      2.00000
     54      -3.3600      2.00000
     55      -3.3600      2.00000
     56      -3.1361      2.00000
     57      -3.1170      2.00000
     58      -3.1170      2.00000
     59      -2.1758      2.00000
     60      -2.1612      2.00000
[...]
     98       5.8108      0.00000
     99       5.8124      0.00000
    100       5.8124      0.00000
    101       6.3791      0.00000
    102       6.3791      0.00000
    103       6.3792      0.00000
    104       6.6990      0.00000
    105       6.6990      0.00000
    106       6.6991      0.00000
    107       6.7139      0.00000
    108       6.7142      0.00000
    109       6.7145      0.00000
    110       6.7807      0.00000
    111       6.7807      0.00000
    112       7.2887      0.00000

[...]

 k-point     4 :      -0.3333    0.3333    0.3333
  band No.  band energies     occupation
      1     -21.1133      2.00000
      2     -20.9356      2.00000
      3     -20.9352      2.00000
      4     -20.9341      2.00000
      5     -16.4304      2.00000
      6     -16.4199      2.00000
      7     -16.4198      2.00000
      8     -16.3839      2.00000
      9     -16.3623      2.00000
     10     -16.3623      2.00000
     11     -16.3486      2.00000
     12     -16.3305      2.00000
     13     -16.2562      2.00000
     14     -16.2557      2.00000
     15     -16.2556      2.00000
     16     -16.2555      2.00000
     17     -16.2551      2.00000
     18     -16.2549      2.00000
     19     -16.2544      2.00000
     20     -16.2543      2.00000
     21     -16.2542      2.00000
     22     -16.2538      2.00000
     23     -16.2535      2.00000
     24     -16.2528      2.00000
     25     -14.2795      2.00000
     26     -14.1737      2.00000
     27     -14.1736      2.00000
     28     -14.0419      2.00000
     29     -14.0358      2.00000
     30     -14.0352      2.00000
     31     -14.0349      2.00000
     32     -14.0155      2.00000
     33     -13.9246      2.00000
     34     -13.7746      2.00000
     35     -13.7745      2.00000
     36     -13.7350      2.00000
     37      -8.1132      2.00000
     38      -7.4658      2.00000
     39      -7.4652      2.00000
     40      -7.4650      2.00000
     41      -7.3696      2.00000
     42      -7.3683      2.00000
     43      -7.3470      2.00000
     44      -7.3308      2.00000
     45      -7.3280      2.00000
     46      -7.3149      2.00000
     47      -7.3133      2.00000
     48      -7.3099      2.00000
     49      -7.2966      2.00000
     50      -7.2201      2.00000
     51      -7.2200      2.00000
     52      -6.9674      2.00000
     53      -3.2991      2.00000
     54      -3.2945      2.00000
     55      -3.2424      2.00000
     56      -3.2368      2.00000
     57      -2.8710      2.00000
     58      -2.8648      2.00000
     59      -2.2070      2.00000
     60      -2.0327      2.00000
[...]
     98       5.9869      0.00000
     99       6.0105      0.00000
    100       6.0788      0.00000
    101       6.1650      0.00000
    102       6.2565      0.00000
    103       6.2612      0.00000
    104       6.2650      0.00000
    105       6.3385      0.00000
    106       6.5284      0.00000
    107       6.6092      0.00000
    108       6.6405      0.00000
    109       6.6895      0.00000
    110       6.8575      0.00000
    111       6.8648      0.00000
    112       6.8983      0.00000

 soft charge-density along one line, spin component           1
         0         1         2         3         4         5         6         7         8         9
 total charge-density along one line

------------------------ aborting loop because EDIFF is reached ----------------------------------------

 total charge

# of ion       s       p       d       tot
    1        1.781   4.717   0.010   6.508
    2        1.784   4.719   0.016   6.519
    3        1.784   4.719   0.016   6.519
    4        1.784   4.719   0.016   6.519
    5        1.552   0.431   9.835  11.818
    6        1.552   0.431   9.835  11.818
    7        1.552   0.431   9.835  11.818
    8        1.552   0.431   9.835  11.818
    9        1.615   3.279   0.007   4.901
   10        1.615   3.279   0.007   4.901
   11        1.615   3.279   0.007   4.901
   12        1.615   3.279   0.007   4.901
   13        1.614   3.292   0.006   4.912
   14        1.614   3.292   0.006   4.912
   15        1.614   3.293   0.006   4.913
   16        1.614   3.293   0.006   4.913
   17        1.615   3.279   0.007   4.901
   18        1.615   3.279   0.007   4.901
   19        1.615   3.279   0.007   4.901
   20        1.615   3.279   0.007   4.901
tot         32.716  60.001  39.477 132.194

  FORCE on cell =-STRESS in cart. coord.  units (eV):
  Direction    XX          YY          ZZ          XY          YZ          ZX
  Alpha Z   443.63996   443.63996   443.63996
  Ewald   -3049.71703 -3049.71703 -3049.71703    -0.00000     0.00000     0.00000
  Hartree  1244.34010  1244.34010  1244.34010    -0.00000     0.00000     0.00000
  E(xc)    -738.90897  -738.90948  -738.86484     0.00292    -0.00081    -0.00192
  Local   -1457.39849 -1457.39849 -1457.39849     0.00041    -0.00041    -0.00041
  n-local   900.84992   900.85735   900.56648    -0.06710    -0.05288     0.04617
  augment   406.14773   406.14773   406.14773     0.00006    -0.00002    -0.00006
  Kinetic  2249.81489  2249.80465  2251.69273     0.07648     0.01813    -0.02002
  Fock        0.00000     0.00000     0.00000     0.00000     0.00000     0.00000
  Total      -0.68682    -0.68682    -0.68682     0.00000    -0.00000     0.00000
  in kB      -1.35303    -1.35303    -1.35303     0.00000    -0.00000     0.00000

 VOLUME and BASIS-vectors are now :
  energy-cutoff  :      300.00
  volume of cell :      813.29
      direct lattice vectors                 reciprocal lattice vectors
     5.880246683  5.880246683  5.880246683     0.085030446  0.085030446  0.000000000
     5.880246683 -5.880246683 -5.880246683     0.085030446 -0.000000000 -0.085030446
    -5.880246683  5.880246683 -5.880246683    -0.000000000  0.085030446 -0.085030446

  length of vectors
    10.184886016 10.184886016 10.184886016     0.120251210  0.120251210  0.120251210

 FORCES acting on ions
    electron-ion (+dipol)            ewald-force                    non-local-force                 convergence-correction
   0.354E-12 -.387E-12 0.379E-12   0.724E-14 0.213E-13 -.107E-13   0.000E+00 0.331E-23 0.000E+00   -.543E-13 0.123E-12 -.278E-12
   -.112E-10 -.220E-09 0.234E-09   -.208E-13 0.213E-13 -.213E-13   0.827E-24 -.827E-24 0.000E+00   0.125E-13 0.163E-13 0.298E-12
   0.288E-09 -.211E-09 -.412E-09   0.142E-13 0.888E-14 0.000E+00   0.000E+00 0.000E+00 0.000E+00   -.274E-16 -.140E-12 0.547E-13
   0.476E-11 -.201E-09 -.382E-09   -.252E-13 -.107E-13 0.000E+00   -.103E-24 0.414E-24 0.827E-24   0.642E-13 -.363E-13 -.179E-13
   0.272E-12 -.421E-12 0.212E-12   0.000E+00 -.355E-13 0.249E-13   0.000E+00 -.182E-22 -.165E-23   0.259E-12 0.415E-12 -.164E-12
   0.813E-13 -.946E-13 -.125E-11   -.256E-13 0.973E-13 -.110E-12   0.662E-23 0.000E+00 0.265E-22   -.241E-12 -.151E-12 -.643E-13
   0.154E-11 -.844E-12 0.191E-11   -.500E-15 -.244E-13 0.104E-12   0.265E-22 0.132E-22 -.529E-22   0.489E-12 -.227E-12 0.860E-13
   0.289E-11 -.283E-11 0.436E-11   -.853E-13 0.320E-13 -.568E-13   -.529E-22 0.273E-22 -.414E-23   0.213E-13 0.276E-12 -.230E-12
   0.156E+02 0.667E-05 -.173E+02   -.157E+02 0.458E-11 0.175E+02   0.957E-01 -.260E-17 -.146E+00   0.201E-03 0.302E-08 0.126E-03
   0.156E+02 -.375E-06 0.173E+02   -.157E+02 0.157E-11 -.175E+02   0.957E-01 0.000E+00 0.146E+00   0.201E-03 -.233E-08 -.126E-03
   -.156E+02 -.667E-05 0.173E+02   0.157E+02 -.452E-11 -.175E+02   -.957E-01 0.260E-17 0.146E+00   -.201E-03 -.302E-08 -.126E-03
   -.156E+02 0.375E-06 -.173E+02   0.157E+02 -.169E-11 0.175E+02   -.957E-01 0.867E-18 -.146E+00   -.201E-03 0.233E-08 0.126E-03
   -.173E+02 0.156E+02 0.505E-06   0.175E+02 -.157E+02 0.141E-11   -.146E+00 0.957E-01 0.347E-17   0.126E-03 0.201E-03 0.233E-08
   0.173E+02 -.156E+02 -.505E-06   -.175E+02 0.157E+02 -.133E-11   0.146E+00 -.957E-01 -.282E-17   -.126E-03 -.201E-03 -.233E-08
   -.173E+02 -.156E+02 0.677E-05   0.175E+02 0.157E+02 0.718E-12   -.146E+00 -.957E-01 -.347E-17   0.126E-03 -.201E-03 0.302E-08
   0.173E+02 0.156E+02 -.677E-05   -.175E+02 -.157E+02 -.773E-12   0.146E+00 0.957E-01 0.260E-17   -.126E-03 0.201E-03 -.302E-08
   -.679E-05 -.173E+02 0.156E+02   0.479E-11 0.175E+02 -.157E+02   0.867E-18 -.146E+00 0.957E-01   -.302E-08 0.126E-03 0.201E-03
   -.373E-06 -.173E+02 -.156E+02   0.244E-12 0.175E+02 0.157E+02   -.217E-18 -.146E+00 -.957E-01   -.233E-08 0.126E-03 -.201E-03
   0.373E-06 0.173E+02 0.156E+02   -.228E-12 -.175E+02 -.157E+02   0.217E-18 0.146E+00 0.957E-01   0.233E-08 -.126E-03 0.201E-03
   0.679E-05 0.173E+02 -.156E+02   -.468E-11 -.175E+02 0.157E+02   -.347E-17 0.146E+00 -.957E-01   0.302E-08 -.126E-03 -.201E-03
   0.294E-09 -.636E-09 -.553E-09   -.159E-13 0.107E-13 -.302E-13   -.304E-16 0.278E-16 -.416E-16   0.568E-12 0.243E-12 -.344E-12

 POSITION                                       TOTAL-FORCE (eV/Angst)
      2.94012      2.94012      2.94012         0.000000      0.000000     -0.000000
      2.94012      2.94012     -2.94012         0.000000      0.000000     -0.000000
     -2.94012      2.94012     -2.94012         0.000000      0.000000     -0.000000
      2.94012     -2.94012     -2.94012         0.000000      0.000000     -0.000000
      0.00000      0.00000      0.00000         0.000000      0.000000     -0.000000
      0.00000      0.00000     -5.88025         0.000000      0.000000     -0.000000
      0.00000      5.88025      0.00000         0.000000      0.000000     -0.000000
      5.88025      0.00000      0.00000         0.000000      0.000000     -0.000000
      5.57247     -2.94012     -5.51370        -0.007071      0.000000      0.000490
     -0.30778      2.94012     -6.24679        -0.007071      0.000000     -0.000490
      0.30778      8.82037     -0.36654         0.007071      0.000000     -0.000490
      6.18803      2.94012      0.36654         0.007071      0.000000      0.000490
      0.36654     -0.30778     -8.82037         0.000490     -0.007071     -0.000000
      5.51370      6.18803      2.94012        -0.000490      0.007071     -0.000000
      6.24679      0.30778     -2.94012         0.000490      0.007071     -0.000000
     -0.36654      5.57247     -2.94012        -0.000490     -0.007071     -0.000000
      2.94012      0.36654     -0.30778         0.000000      0.000490     -0.007071
      2.94012      0.36654     -5.57247         0.000000      0.000490      0.007071
      2.94012      5.51370     -0.30778         0.000000     -0.000490     -0.007071
      2.94012      5.51370     -5.57247         0.000000     -0.000490      0.007071
    total drift:                                0.000000     -0.000000     -0.000000

  FREE ENERGIE OF THE ION-ELECTRON SYSTEM (eV)
  free  energy   TOTEN  =      -714.76809394 eV

  energy  without entropy=     -714.76809394  energy(sigma->0) =     -714.76809394

 stress matrix after NEB project (eV)
     -0.68682      0.00000      0.00000
      0.00000     -0.68682     -0.00000
      0.00000     -0.00000     -0.68682
  FORCES: max atom, RMS     0.007088    0.005490
  FORCE total and by dimension    0.024554    0.007071
  Stress total and by dimension    1.189606    0.686819

 total charge

# of ion       s       p       d       tot
    1        1.781   4.717   0.010   6.508
    2        1.784   4.719   0.016   6.519
    3        1.784   4.719   0.016   6.519
    4        1.784   4.719   0.016   6.519
    5        1.552   0.431   9.835  11.818
    6        1.552   0.431   9.835  11.818
    7        1.552   0.431   9.835  11.818
    8        1.552   0.431   9.835  11.818
    9        1.615   3.279   0.007   4.901
   10        1.615   3.279   0.007   4.901
   11        1.615   3.279   0.007   4.901
   12        1.615   3.279   0.007   4.901
   13        1.614   3.292   0.006   4.912
   14        1.614   3.292   0.006   4.912
   15        1.614   3.293   0.006   4.913
   16        1.614   3.293   0.006   4.913
   17        1.615   3.279   0.007   4.901
   18        1.615   3.279   0.007   4.901
   19        1.615   3.279   0.007   4.901
   20        1.615   3.279   0.007   4.901
tot         32.716  60.001  39.477 132.194