 vasp.5.4.4.18Apr17-6-g9f103f2a35 (build Jun 22 2020 09:27:21) complex

 INCAR:
 POTCAR:    PAW_PBE Cs_sv 08Apr2002
 POTCAR:    PAW_PBE Pb_d 06Sep2000
 POTCAR:    PAW_PBE Br 06Sep2000
 POTCAR:    PAW_PBE Cs_sv 08Apr2002
   VRHFIN =Cs: 5s5p6s

   TITEL  = PAW_PBE Cs_sv 08Apr2002
   POMASS =  132.900; ZVAL   =    9.000    mass and valenz
   ENMAX  =  220.318; ENMIN  =  165.238 eV

 POTCAR:    PAW_PBE Pb_d 06Sep2000
   VRHFIN =Pb:

   TITEL  = PAW_PBE Pb_d 06Sep2000
   POMASS =  207.200; ZVAL   =   14.000    mass and valenz
   ENMAX  =  237.835; ENMIN  =  178.376 eV

 POTCAR:    PAW_PBE Br 06Sep2000
   VRHFIN =Br: s2p5

   TITEL  = PAW_PBE Br 06Sep2000
   POMASS =   79.904; ZVAL   =    7.000    mass and valenz
   ENMAX  =  216.285; ENMIN  =  162.214 eV

 Optimization of the real space projectors (new method)

 maximal supplied QI-value         = 15.12
 optimisation between [QCUT,QGAM] = [  8.77, 17.69] = [ 21.53, 87.61] Ry
 Optimized for a Real-space Cutoff    1.85 Angstroem

   l    n(q)    QCUT    max X(q) W(low)/X(q) W(high)/X(q)  e(spline)
   0     10     8.768    25.322    0.81E-04    0.51E-04    0.48E-06
   0     10     8.768    99.187    0.78E-04    0.50E-04    0.47E-06
   1      9     8.768    11.761    0.21E-03    0.20E-03    0.37E-06
   1      9     8.768     8.275    0.24E-03    0.22E-03    0.41E-06
   2      9     8.768     3.829    0.23E-04    0.15E-03    0.18E-06
 Optimization of the real space projectors (new method)

[...]

   l    n(q)    QCUT    max X(q) W(low)/X(q) W(high)/X(q)  e(spline)
   2      7     8.768     3.846    0.48E-04    0.11E-03    0.11E-06
   2      7     8.768     8.593    0.20E-03    0.22E-04    0.24E-06
   0      8     8.768    20.082    0.68E-04    0.88E-04    0.41E-07
   0      8     8.768     8.597    0.89E-04    0.13E-03    0.59E-07
   1      8     8.768    33.223    0.15E-03    0.53E-04    0.87E-07
   1      8     8.768    15.899    0.14E-03    0.44E-04    0.78E-07
 Optimization of the real space projectors (new method)

 maximal supplied QI-value         = 17.95
 optimisation between [QCUT,QGAM] = [  8.80, 17.59] = [ 21.67, 86.68] Ry
 Optimized for a Real-space Cutoff    1.59 Angstroem

   l    n(q)    QCUT    max X(q) W(low)/X(q) W(high)/X(q)  e(spline)
   0      8     8.797   175.082    0.82E-04    0.14E-03    0.89E-07
   0      8     8.797   174.004    0.79E-04    0.14E-03    0.86E-07
   1      8     8.797    54.315    0.16E-03    0.14E-04    0.30E-06
   1      8     8.797    42.441    0.16E-03    0.14E-04    0.30E-06
   2      7     8.797     3.596    0.92E-04    0.15E-03    0.85E-07
  PAW_PBE Cs_sv 08Apr2002               :
  PAW_PBE Pb_d 06Sep2000                :
  PAW_PBE Br 06Sep2000                  :

 POSCAR: Cs4 Pb4 Br12
  positions in direct lattice
  velocities in cartesian coordinates

 METAGGA = SCAN     LMAXTAU =  6    LMIXTAU =  F

 VTST: version 3.2, (02/03/18)

 CHAIN: initializing optimizer

 OPT: Using VASP Conjugate-Gradient optimizer
 CHAIN: Read ICHAIN            0

 POSCAR: Cs4 Pb4 Br12
  positions in direct lattice
  velocities in cartesian coordinates

 ion  position               nearest neighbor table
   1  0.500  0.000  0.000-
   2  0.500  0.500  0.500-
   3  0.000  0.000  0.500-
   4  0.000  0.500  0.000-
   5  0.000  0.000  0.000-  17 2.98  20 2.98  13 2.99  14 2.99   9 2.99  11 2.99
   6  0.000  0.500  0.500-  18 2.98  19 2.98  13 2.99  14 2.99  10 2.99  12 2.99
   7  0.500  0.000  0.500-  18 2.98  19 2.98  15 2.99  16 2.99   9 2.99  11 2.99
   8  0.500  0.500  0.000-  17 2.98  20 2.98  15 2.99  16 2.99  10 2.99  12 2.99
   9  0.209  0.956  0.247-   5 2.99   7 2.99
  10  0.209  0.462  0.753-   6 2.99   8 2.99
  11  0.791  0.044  0.753-   5 2.99   7 2.99
  12  0.791  0.538  0.247-   6 2.99   8 2.99
  13  0.044  0.791  0.753-   5 2.99   6 2.99
  14  0.956  0.209  0.247-   5 2.99   6 2.99
  15  0.538  0.791  0.247-   7 2.99   8 2.99
  16  0.462  0.209  0.753-   7 2.99   8 2.99
  17  0.285  0.285  0.070-   5 2.98   8 2.98
  18  0.285  0.715  0.500-   6 2.98   7 2.98
  19  0.715  0.285  0.500-   6 2.98   7 2.98
  20  0.715  0.715  0.930-   5 2.98   8 2.98

  LATTYP: Found a body centered tetragonal cell.
 ALAT       =    11.7865850214
 C/A-ratio  =     0.9901249678

  Lattice vectors:

 A1 = (   5.8350960572,   5.8932925107,   5.8932925107)
 A2 = (   5.8350960572,  -5.8932925107,  -5.8932925107)
 A3 = (  -5.8350960572,   5.8932925107,  -5.8932925107)

Analysis of symmetry for initial positions (statically):
 Subroutine PRICEL returns:
 Original cell was already a primitive cell.

 Routine SETGRP: Setting up the symmetry group for a
 body centered tetragonal supercell.

 Subroutine GETGRP returns: Found 16 space group operations
 (whereof  4 operations were pure point group operations)
 out of a pool of 16 trial point group operations.

The static configuration has the point symmetry C_2h.
 The point group associated with its full space group is D_4h.

Analysis of symmetry for dynamics (positions and initial velocities):
 Subroutine PRICEL returns:
 Original cell was already a primitive cell.

 Routine SETGRP: Setting up the symmetry group for a
 body centered tetragonal supercell.

 Subroutine GETGRP returns: Found 16 space group operations
 (whereof  4 operations were pure point group operations)
 out of a pool of 16 trial point group operations.

The dynamic configuration has the point symmetry C_2h.
 The point group associated with its full space group is D_4h.

 Subroutine INISYM returns: Found 16 space group operations
 (whereof  4 operations are pure point group operations),
 and found     1 'primitive' translations

 KPOINTS: 1x1x1

Automatic generation of k-mesh.
Space group operators:
 irot       det(A)        alpha          n_x          n_y          n_z        tau_x        tau_y        tau_z
    1     1.000000     0.000000     1.000000     0.000000     0.000000     0.000000     0.000000     0.000000
    2    -1.000000     0.000000     1.000000     0.000000     0.000000     0.000000     0.000000     0.000000
    3     1.000000   180.000000     0.000000     0.707107     0.707107     0.000000     0.000000     0.000000
    4    -1.000000   180.000000     0.000000     0.707107     0.707107     0.000000     0.000000     0.000000
    5     1.000000    90.000000    -1.000000    -0.000000    -0.000000     0.000000     0.500000     0.500000
    6    -1.000000    90.000000    -1.000000    -0.000000    -0.000000     0.000000     0.500000     0.500000
    7     1.000000   180.000000     1.000000     0.000000     0.000000     0.500000     0.500000    -0.000000
    8    -1.000000   180.000000     1.000000     0.000000     0.000000     0.500000     0.500000    -0.000000
    9     1.000000    90.000000     1.000000    -0.000000    -0.000000     0.500000    -0.000000     0.500000
   10    -1.000000    90.000000     1.000000    -0.000000    -0.000000     0.500000    -0.000000     0.500000
   11     1.000000   179.999999     0.000000    -1.000000     0.000000     0.500000    -0.000000     0.500000
   12    -1.000000   179.999999     0.000000    -1.000000     0.000000     0.500000    -0.000000     0.500000
   13     1.000000   180.000000     0.000000    -0.707107     0.707107     0.500000     0.500000    -0.000000
   14    -1.000000   180.000000     0.000000    -0.707107     0.707107     0.500000     0.500000    -0.000000
   15     1.000000   179.999999     0.000000     0.000000     1.000000     0.000000     0.500000     0.500000
   16    -1.000000   179.999999     0.000000     0.000000     1.000000     0.000000     0.500000     0.500000

 Subroutine IBZKPT returns following result:

 Found      6 irreducible k-points:

 Following reciprocal coordinates:
            Coordinates               Weight
  0.000000  0.000000  0.000000      1.000000
  0.333333  0.000000  0.000000      8.000000
  0.333333  0.333333  0.000000      8.000000
 -0.333333  0.333333  0.000000      4.000000
 -0.333333  0.333333  0.333333      4.000000
 -0.333333 -0.333333  0.333333      2.000000

 Following cartesian coordinates:
            Coordinates               Weight
  0.000000  0.000000 -0.000000      1.000000
  0.028563  0.028281 -0.000000      8.000000
  0.057126  0.028281 -0.028281      8.000000
  0.000000 -0.028281 -0.028281      4.000000
  0.000000  0.000000 -0.056561      4.000000
 -0.057126  0.000000 -0.000000      2.000000

 SYSTEM =  CsPbBr3 cubic bulk
 POSCAR =  Cs4 Pb4 Br12

 Startparameter for this run:
   NWRITE =      2    write-flag & timer
   PREC   = accura    normal or accurate (medium, high low for compatibility)
   ISTART =      0    job   : 0-new  1-cont  2-samecut
   ICHARG =      2    charge: 1-file 2-atom 10-const
   ISPIN  =      1    spin polarized calculation?
   LNONCOLLINEAR =      F non collinear calculations
   LSORBIT =      F    spin-orbit coupling
   INIWAV =      1    electr: 0-lowe 1-rand  2-diag
   LASPH  =      T    aspherical Exc in radial PAW
   METAGGA=      F    non-selfconsistent MetaGGA calc.

 Electronic Relaxation 1
   ENCUT  =  300.0 eV  22.05 Ry    4.70 a.u.  14.37 14.37 14.37*2*pi/ulx,y,z
   ENINI  =  300.0     initial cutoff
   ENAUG  =  503.9 eV  augmentation charge cutoff
   NELM   =    200;   NELMIN=  2; NELMDL=  0     # of ELM steps
   EDIFF  = 0.1E-05   stopping-criterion for ELM
   LREAL  =      T    real-space projection
   NLSPLINE    = F    spline interpolate recip. space projectors
   LCOMPAT=      F    compatible to vasp.4.4
   GGA_COMPAT  = T    GGA compatible to vasp.4.4-vasp.4.6
   LMAXPAW     = -100 max onsite density
   LMAXMIX     =    2 max onsite mixed and CHGCAR
   VOSKOWN=      0    Vosko Wilk Nusair interpolation
   ROPT   =   -0.00025  -0.00025  -0.00025
 Ionic relaxation
   EDIFFG = -.1E-01   stopping-criterion for IOM
   NSW    =      0    number of steps for IOM
   NBLOCK =      1;   KBLOCK =      1    inner block; outer block
   IBRION =     -1    ionic relax: 0-MD 1-quasi-New 2-CG
   NFREE  =      1    steps in history (QN), initial steepest desc. (CG)
   ISIF   =      3    stress and relaxation
   IWAVPR =     10    prediction:  0-non 1-charg 2-wave 3-comb
   ISYM   =      2    0-nonsym 1-usesym 2-fastsym
   LCORR  =      T    Harris-Foulkes like correction to forces

   POTIM  = 0.5000    time-step for ionic-motion
   TEIN   =    0.0    initial temperature
   TEBEG  =    0.0;   TEEND  =   0.0 temperature during run
   SMASS  =  -3.00    Nose mass-parameter (am)
   estimated Nose-frequenzy (Omega)   =  0.10E-29 period in steps =****** mass=  -0.237E-26a.u.
   SCALEE = 1.0000    scale energy and forces
   NPACO  =    256;   APACO  = 16.0  distance and # of slots for P.C.
   PSTRESS=    0.0 pullay stress

  Mass of Ions in am
   POMASS = 132.90207.20 79.90
  Ionic Valenz
   ZVAL   =   9.00 14.00  7.00
  Atomic Wigner-Seitz radii
  virtual crystal weights
   VCA    =   1.00  1.00  1.00
   NELECT =     176.0000    total number of electrons
   NUPDOWN=      -1.0000    fix difference up-down

 DOS related values:
   EMIN   =  10.00;   EMAX   =-10.00  energy-range for DOS
   EFERMI =   0.00
   ISMEAR =     0;   SIGMA  =   0.01  broadening in eV -4-tet -1-fermi 0-gaus

 Electronic relaxation 2 (details)
   IALGO  =     38    algorithm
[...]
  average eigenvalue GAMMA=   1.1992
  1.1992

[...]

 Broyden mixing:
  rms(total) = 0.25369E-03    rms(broyden)= 0.25058E-03
  rms(prec ) = 0.32135E-03
  weight for this iteration     100.00

[...]

 Broyden mixing:
  rms(total) = 0.87751E-04    rms(broyden)= 0.78376E-04
  rms(prec ) = 0.10895E-03
  weight for this iteration     100.00
  WARNING: grid for Broyden might be to small

[...]

 eigenvalue-minimisations  :   872
 total energy-change (2. order) : 0.1775360E-05  (-0.7249040E-08)
 number of electron     176.0000002 magnetization
 augmentation part       -2.3292838 magnetization

 Broyden mixing:
  rms(total) = 0.44249E-04    rms(broyden)= 0.20039E-04
  rms(prec ) = 0.23588E-04
  weight for this iteration     100.00
  WARNING: grid for Broyden might be to small

 eigenvalues of (default mixing * dielectric matrix)
  average eigenvalue GAMMA=   1.7670
  3.9362  2.8347  2.8347  2.2479  1.8547  1.2990  1.2151  1.0862  1.0862  0.9451
  0.9451  0.9189

[...]

--------------------------------------- Iteration      1(  18)  ---------------------------------------

 eigenvalue-minimisations  :   840
 total energy-change (2. order) :-0.5957590E-06  (-0.3220064E-08)
 number of electron     176.0000002 magnetization
 augmentation part       -2.3292838 magnetization

 Free energy of the ion-electron system (eV)
  alpha Z        PSCENC =       445.09558448
  Ewald energy   TEWEN  =     -9169.93488841
  -Hartree energ DENC   =     -3716.79705156
  -exchange      EXHF   =         0.00000000
  -V(xc)+E(xc)   XCENC  =       481.52033517
  PAW double counting   =     11574.49279040   -12110.88520789
  entropy T*S    EENTRO =        -0.00000000
  eigenvalues    EBANDS =     -1508.56262455
  atomic energy  EATOM  =     13290.28009929
  Solvation  Ediel_sol  =         0.00000000
  free energy    TOTEN  =      -714.79096308 eV

  energy without entropy =     -714.79096308  energy(sigma->0) =     -714.79096308

 average (electrostatic) potential at core
  the test charge radii are     1.1312  1.1541  1.0178
  (the norm of the test charge is              1.0000)
       1 -55.5044       2 -55.3585       3 -55.3139       4 -55.5044       5-101.5857
       6-101.5857       7-101.5857       8-101.5857       9 -68.9894      10 -68.9894
      11 -68.9894      12 -68.9894      13 -68.9894      14 -68.9894      15 -68.9894
      16 -68.9894      17 -68.9969      18 -68.9969      19 -68.9969      20 -68.9969

 E-fermi :   0.3291     XC(G=0):  -8.0313     alpha+bet : -6.9828

 k-point     1 :       0.0000    0.0000    0.0000
  band No.  band energies     occupation
      1     -21.0108      2.00000
      2     -21.0096      2.00000
      3     -20.8926      2.00000
      4     -20.8313      2.00000
      5     -16.4239      2.00000
      6     -16.4197      2.00000
      7     -16.3956      2.00000
      8     -16.3909      2.00000
      9     -16.3908      2.00000
     10     -16.3239      2.00000
     11     -16.3238      2.00000
     12     -16.3228      2.00000
     13     -16.2519      2.00000
     14     -16.2509      2.00000
     15     -16.2509      2.00000
     16     -16.2506      2.00000
     17     -16.2497      2.00000
     18     -16.2489      2.00000
     19     -16.2486      2.00000
     20     -16.2482      2.00000
     21     -16.2477      2.00000
     22     -16.2467      2.00000
     23     -16.2463      2.00000
     24     -16.2461      2.00000
     25     -14.3709      2.00000
     26     -14.0459      2.00000
     27     -14.0459      2.00000
     28     -14.0200      2.00000
     29     -14.0200      2.00000
     30     -14.0171      2.00000
     31     -14.0128      2.00000
     32     -13.9623      2.00000
     33     -13.9457      2.00000
     34     -13.9457      2.00000
     35     -13.7264      2.00000
     36     -13.7220      2.00000
     37      -7.6770      2.00000
     38      -7.6770      2.00000
     39      -7.6711      2.00000
     40      -7.3968      2.00000
     41      -7.3968      2.00000
     42      -7.3933      2.00000
     43      -7.3758      2.00000
     44      -7.3500      2.00000
     45      -7.3500      2.00000
     46      -7.3230      2.00000
     47      -7.2687      2.00000
     48      -7.2686      2.00000
     49      -7.2163      2.00000
     50      -7.2162      2.00000
     51      -7.2057      2.00000
     52      -6.4526      2.00000
     53      -3.3379      2.00000
     54      -3.3309      2.00000
     55      -3.3309      2.00000
     56      -3.1578      2.00000
     57      -3.0711      2.00000
     58      -3.0575      2.00000
     59      -2.1631      2.00000
     60      -2.1582      2.00000
[...]
     98       5.7285      0.00000
     99       5.8808      0.00000
    100       5.9672      0.00000
    101       6.2771      0.00000
    102       6.5003      0.00000
    103       6.5004      0.00000
    104       6.5662      0.00000
    105       6.6388      0.00000
    106       6.6388      0.00000
    107       6.6696      0.00000
    108       6.6698      0.00000
    109       6.6770      0.00000
    110       6.7022      0.00000
    111       6.9827      0.00000
    112       7.2603      0.00000

[...]

 k-point     6 :      -0.3333   -0.3333    0.3333
  band No.  band energies     occupation
      1     -21.0103      2.00000
      2     -21.0099      2.00000
      3     -20.8925      2.00000
      4     -20.8312      2.00000
      5     -16.4193      2.00000
      6     -16.4116      2.00000
      7     -16.4115      2.00000
      8     -16.3763      2.00000
      9     -16.3549      2.00000
     10     -16.3549      2.00000
     11     -16.3425      2.00000
     12     -16.3227      2.00000
     13     -16.2516      2.00000
     14     -16.2510      2.00000
     15     -16.2510      2.00000
     16     -16.2501      2.00000
     17     -16.2491      2.00000
     18     -16.2490      2.00000
     19     -16.2487      2.00000
     20     -16.2479      2.00000
     21     -16.2472      2.00000
     22     -16.2468      2.00000
     23     -16.2466      2.00000
     24     -16.2458      2.00000
     25     -14.2587      2.00000
     26     -14.1643      2.00000
     27     -14.1643      2.00000
     28     -14.0183      2.00000
     29     -14.0151      2.00000
     30     -14.0127      2.00000
     31     -14.0127      2.00000
     32     -14.0127      2.00000
     33     -13.9157      2.00000
     34     -13.7669      2.00000
     35     -13.7669      2.00000
     36     -13.7170      2.00000
     37      -8.0895      2.00000
     38      -7.4051      2.00000
     39      -7.4051      2.00000
     40      -7.3943      2.00000
     41      -7.3741      2.00000
     42      -7.3573      2.00000
     43      -7.3573      2.00000
     44      -7.3324      2.00000
     45      -7.3213      2.00000
     46      -7.3213      2.00000
     47      -7.2208      2.00000
     48      -7.2207      2.00000
     49      -7.2127      2.00000
     50      -7.1975      2.00000
     51      -7.1975      2.00000
     52      -6.9635      2.00000
     53      -3.2634      2.00000
     54      -3.2634      2.00000
     55      -3.2495      2.00000
     56      -3.1910      2.00000
     57      -2.8482      2.00000
     58      -2.8482      2.00000
     59      -2.2245      2.00000
     60      -1.9925      2.00000
[...]
     98       5.9854      0.00000
     99       6.0019      0.00000
    100       6.0607      0.00000
    101       6.1643      0.00000
    102       6.1644      0.00000
    103       6.2000      0.00000
    104       6.2494      0.00000
    105       6.3907      0.00000
    106       6.6381      0.00000
    107       6.6381      0.00000
    108       6.6426      0.00000
    109       6.6749      0.00000
    110       6.8784      0.00000
    111       6.9215      0.00000
    112       6.9964      0.00000

 soft charge-density along one line, spin component           1
         0         1         2         3         4         5         6         7         8         9
 total charge-density along one line

------------------------ aborting loop because EDIFF is reached ----------------------------------------

 total charge

# of ion       s       p       d       tot
    1        1.783   4.718   0.013   6.513
    2        1.786   4.720   0.019   6.525
    3        1.784   4.718   0.015   6.518
    4        1.783   4.718   0.013   6.513
    5        1.552   0.430   9.835  11.817
    6        1.552   0.430   9.835  11.817
    7        1.552   0.430   9.835  11.817
    8        1.552   0.430   9.835  11.817
    9        1.615   3.278   0.007   4.900
   10        1.615   3.278   0.007   4.900
   11        1.615   3.278   0.007   4.900
   12        1.615   3.278   0.007   4.900
   13        1.614   3.287   0.006   4.907
   14        1.614   3.287   0.006   4.907
   15        1.614   3.287   0.006   4.907
   16        1.614   3.287   0.006   4.907
   17        1.615   3.285   0.007   4.907
   18        1.615   3.286   0.007   4.907
   19        1.615   3.286   0.007   4.907
   20        1.615   3.285   0.007   4.907
tot         32.718  59.996  39.478 132.192

  FORCE on cell =-STRESS in cart. coord.  units (eV):
  Direction    XX          YY          ZZ          XY          YZ          ZX
  Alpha Z   445.09558   445.09558   445.09558
  Ewald   -3032.25247 -3068.85475 -3068.85475     0.00000     0.00000     0.00000
  Hartree  1271.20882  1222.79394  1222.79394    -0.00000     0.00000     0.00000
  E(xc)    -738.96246  -738.90011  -738.86992     0.00285    -0.00085    -0.00200
  Local   -1502.45094 -1418.42401 -1418.42401     0.00040    -0.00040    -0.00040
  n-local   900.85932   900.60485   900.39389    -0.04708    -0.06388     0.04169
  augment   406.29714   406.08321   406.08321    -0.00056     0.00016     0.00056
  Kinetic  2249.54193  2250.40289  2251.64829     0.06780     0.02543    -0.02296
  Fock        0.00000     0.00000     0.00000     0.00000     0.00000     0.00000
  Total      -0.66306    -0.66608    -0.66608     0.00000     0.00000     0.00000
  in kB      -1.31051    -1.31647    -1.31647     0.00000     0.00000     0.00000

 VOLUME and BASIS-vectors are now :
  energy-cutoff  :      300.00
  volume of cell :      810.63
      direct lattice vectors                 reciprocal lattice vectors
     5.835096057  5.893292511  5.893292511     0.085688392  0.084842217  0.000000000
     5.835096057 -5.893292511 -5.893292511     0.085688392 -0.000000000 -0.084842217
    -5.835096057  5.893292511 -5.893292511    -0.000000000  0.084842217 -0.084842217

  length of vectors
    10.173993278 10.173993278 10.173993278     0.120584834  0.120584834  0.119985013

 FORCES acting on ions
    electron-ion (+dipol)            ewald-force                    non-local-force                 convergence-correction
   -.148E-09 0.161E-09 0.227E-09   -.284E-13 -.107E-13 0.711E-14   0.517E-25 -.207E-24 -.207E-24   -.307E-13 -.159E-13 -.448E-13
   0.944E-10 0.118E-09 -.227E-09   0.223E-15 0.355E-13 -.213E-13   0.000E+00 0.103E-24 0.000E+00   -.233E-13 -.131E-13 0.780E-13
   -.383E-09 0.646E-11 0.483E-10   0.389E-13 0.284E-13 -.107E-13   0.000E+00 0.000E+00 0.000E+00   -.128E-13 -.941E-14 0.321E-13
   0.262E-09 0.935E-10 0.237E-10   -.316E-13 0.711E-14 0.107E-13   -.414E-24 0.853E-24 -.775E-25   0.451E-14 -.138E-13 0.153E-13
   -.108E-13 0.328E-15 -.113E-13   0.000E+00 0.817E-13 -.171E-12   -.414E-23 -.331E-23 -.331E-23   0.245E-12 0.164E-12 -.853E-13
   0.535E-13 0.491E-13 -.953E-12   -.292E-13 0.178E-13 0.568E-13   -.993E-23 0.000E+00 0.000E+00   0.910E-13 0.196E-13 -.972E-13
   0.178E-11 -.472E-12 0.199E-11   -.304E-13 -.524E-13 0.888E-15   0.132E-22 0.000E+00 0.132E-22   0.199E-12 -.135E-13 -.667E-13
   0.301E-11 -.296E-11 0.508E-11   0.284E-13 -.533E-13 -.604E-13   0.000E+00 0.000E+00 0.000E+00   0.564E-13 0.845E-13 -.681E-13
   0.192E+02 0.372E-05 -.258E+01   -.195E+02 0.230E-10 0.260E+01   0.221E+00 -.325E-18 -.153E-01   -.575E-04 -.420E-09 -.575E-04
   0.192E+02 0.440E-05 0.258E+01   -.195E+02 -.231E-10 -.260E+01   0.221E+00 0.163E-17 0.153E-01   -.575E-04 -.925E-09 0.575E-04
   -.192E+02 -.372E-05 0.258E+01   0.195E+02 -.231E-10 -.260E+01   -.221E+00 0.217E-18 0.153E-01   0.575E-04 0.420E-09 0.575E-04
   -.192E+02 -.440E-05 -.258E+01   0.195E+02 0.231E-10 0.260E+01   -.221E+00 -.146E-17 -.153E-01   0.575E-04 0.924E-09 -.575E-04
   -.192E+02 -.258E+01 0.372E-05   0.195E+02 0.260E+01 0.263E-10   -.221E+00 -.153E-01 -.515E-18   0.575E-04 -.575E-04 -.420E-09
   0.192E+02 0.258E+01 -.372E-05   -.195E+02 -.260E+01 -.262E-10   0.221E+00 0.153E-01 0.407E-18   -.575E-04 0.575E-04 0.420E-09
   -.192E+02 0.258E+01 0.440E-05   0.195E+02 -.260E+01 -.244E-10   -.221E+00 0.153E-01 -.108E-18   0.575E-04 0.575E-04 -.925E-09
   0.192E+02 -.258E+01 -.440E-05   -.195E+02 0.260E+01 0.245E-10   0.221E+00 -.153E-01 0.217E-18   -.575E-04 -.575E-04 0.925E-09
   -.342E-05 -.231E+02 0.231E+02   0.237E-11 0.233E+02 -.233E+02   0.173E-17 -.138E+00 0.138E+00   0.579E-09 -.480E-04 0.480E-04
   0.102E-11 -.231E+02 -.231E+02   0.231E-13 0.233E+02 0.233E+02   -.542E-19 -.138E+00 -.138E+00   -.696E-13 -.480E-04 -.480E-04
   0.967E-12 0.231E+02 0.231E+02   0.703E-14 -.233E+02 -.233E+02   0.271E-19 0.138E+00 0.138E+00   -.376E-13 0.480E-04 0.480E-04
   0.342E-05 0.231E+02 -.231E+02   -.242E-11 -.233E+02 0.233E+02   -.173E-17 0.138E+00 -.138E+00   -.579E-09 0.480E-04 -.480E-04
   -.164E-09 0.390E-09 0.608E-10   0.700E-14 0.711E-14 -.711E-14   -.833E-16 -.278E-16 -.555E-16   0.528E-12 0.158E-12 -.238E-12

 POSITION                                       TOTAL-FORCE (eV/Angst)
      2.91755      2.94665      2.94665        -0.000000     -0.000000     -0.000000
      2.91755      2.94665     -2.94665        -0.000000     -0.000000     -0.000000
     -2.91755      2.94665     -2.94665        -0.000000     -0.000000     -0.000000
      2.91755     -2.94665     -2.94665        -0.000000     -0.000000     -0.000000
      0.00000      0.00000      0.00000        -0.000000     -0.000000     -0.000000
      0.00000      0.00000     -5.89329        -0.000000     -0.000000     -0.000000
      0.00000      5.89329      0.00000        -0.000000     -0.000000     -0.000000
      5.83510      0.00000      0.00000        -0.000000     -0.000000     -0.000000
      5.35784     -2.94665     -5.86081         0.004177     -0.000000     -0.003772
     -0.47726      2.94665     -5.92578         0.004177     -0.000000      0.003772
      0.47726      8.83994     -0.03248        -0.004177      0.000000      0.003772
      6.31236      2.94665      0.03248        -0.004177     -0.000000     -0.003772
      0.47726      0.03248     -8.83994        -0.004177     -0.003772     -0.000000
      5.35784      5.86081      2.94665         0.004177      0.003772      0.000000
      6.31236     -0.03248     -2.94665        -0.004177      0.003772     -0.000000
     -0.47726      5.92578     -2.94665         0.004177     -0.003772     -0.000000
      2.91755      0.41499     -0.41499        -0.000000     -0.002673      0.002673
      2.91755      0.41499     -5.47830        -0.000000     -0.002673     -0.002673
      2.91755      5.47830     -0.41499        -0.000000      0.002673      0.002673
      2.91755      5.47830     -5.47830         0.000000      0.002673     -0.002673
    total drift:                               -0.000000      0.000000      0.000000

  FREE ENERGIE OF THE ION-ELECTRON SYSTEM (eV)
  free  energy   TOTEN  =      -714.79096308 eV

  energy  without entropy=     -714.79096308  energy(sigma->0) =     -714.79096308

 stress matrix after NEB project (eV)
     -0.66306      0.00000      0.00000
      0.00000     -0.66608      0.00000
      0.00000      0.00000     -0.66608
  FORCES: max atom, RMS     0.005628    0.003941
  FORCE total and by dimension    0.017623    0.004177
  Stress total and by dimension    1.151941    0.666077

 total charge

# of ion       s       p       d       tot
    1        1.783   4.718   0.013   6.513
    2        1.786   4.720   0.019   6.525
    3        1.784   4.718   0.015   6.518
    4        1.783   4.718   0.013   6.513
    5        1.552   0.430   9.835  11.817
    6        1.552   0.430   9.835  11.817
    7        1.552   0.430   9.835  11.817
    8        1.552   0.430   9.835  11.817
    9        1.615   3.278   0.007   4.900
   10        1.615   3.278   0.007   4.900
   11        1.615   3.278   0.007   4.900
   12        1.615   3.278   0.007   4.900
   13        1.614   3.287   0.006   4.907
   14        1.614   3.287   0.006   4.907
   15        1.614   3.287   0.006   4.907
   16        1.614   3.287   0.006   4.907
   17        1.615   3.285   0.007   4.907
   18        1.615   3.286   0.007   4.907
   19        1.615   3.286   0.007   4.907
   20        1.615   3.285   0.007   4.907
tot         32.718  59.996  39.478 132.192