 vasp.5.4.4.18Apr17-6-g9f103f2a35 (build Jun 22 2020 09:27:21) complex

 INCAR:
 POTCAR:    PAW_PBE Pb_d 06Sep2000
 POTCAR:    PAW_PBE Br 06Sep2000
 POTCAR:    PAW_PBE Pb_d 06Sep2000
   VRHFIN =Pb:

   TITEL  = PAW_PBE Pb_d 06Sep2000
   POMASS =  207.200; ZVAL   =   14.000    mass and valenz
   ENMAX  =  237.835; ENMIN  =  178.376 eV

   TITEL  = PAW_PBE Br 06Sep2000
   POMASS =   79.904; ZVAL   =    7.000    mass and valenz
   ENMAX  =  216.285; ENMIN  =  162.214 eV

 Optimization of the real space projectors (new method)

 maximal supplied QI-value         = 15.12
 optimisation between [QCUT,QGAM] = [  8.77, 17.69] = [ 21.53, 87.61] Ry
 Optimized for a Real-space Cutoff    1.59 Angstroem

   l    n(q)    QCUT    max X(q) W(low)/X(q) W(high)/X(q)  e(spline)
   2      7     8.768     3.846    0.48E-04    0.11E-03    0.11E-06
   2      7     8.768     8.593    0.20E-03    0.22E-04    0.24E-06
   0      8     8.768    20.082    0.68E-04    0.88E-04    0.41E-07
   0      8     8.768     8.597    0.89E-04    0.13E-03    0.59E-07
   1      8     8.768    33.223    0.15E-03    0.53E-04    0.87E-07
   1      8     8.768    15.899    0.14E-03    0.44E-04    0.78E-07
 Optimization of the real space projectors (new method)

 maximal supplied QI-value         = 17.95
 optimisation between [QCUT,QGAM] = [  8.80, 17.59] = [ 21.67, 86.68] Ry
 Optimized for a Real-space Cutoff    1.59 Angstroem

   l    n(q)    QCUT    max X(q) W(low)/X(q) W(high)/X(q)  e(spline)
   0      8     8.797   175.082    0.82E-04    0.14E-03    0.89E-07
   0      8     8.797   174.004    0.79E-04    0.14E-03    0.86E-07
   1      8     8.797    54.315    0.16E-03    0.14E-04    0.30E-06
   1      8     8.797    42.441    0.16E-03    0.14E-04    0.30E-06
   2      7     8.797     3.596    0.92E-04    0.15E-03    0.85E-07
  PAW_PBE Pb_d 06Sep2000                :
  PAW_PBE Br 06Sep2000                  :

 POSCAR: Pb4 Br8
  positions in direct lattice
  velocities in cartesian coordinates

 METAGGA = SCAN     LMAXTAU =  6    LMIXTAU =  F

 VTST: version 3.2, (02/03/18)

 CHAIN: initializing optimizer

 OPT: Using VASP Conjugate-Gradient optimizer
 CHAIN: Read ICHAIN            0

 POSCAR: Pb4 Br8
  positions in direct lattice
  velocities in cartesian coordinates

 ion  position               nearest neighbor table
   1  0.250  0.246  0.486-   5 2.97  11 3.02  11 3.02   6 3.08   6 3.08  12 3.13
   2  0.750  0.754  0.514-   6 2.97  12 3.02  12 3.02   5 3.08   5 3.08  11 3.13
   3  0.250  0.746  0.014-   7 2.97   9 3.02   9 3.02   8 3.08   8 3.08  10 3.13
   4  0.750  0.254  0.986-   8 2.97  10 3.02  10 3.02   7 3.08   7 3.08   9 3.13
   5  0.250  0.947  0.633-   1 2.97   2 3.08   2 3.08
   6  0.750  0.053  0.367-   2 2.97   1 3.08   1 3.08
   7  0.250  0.447  0.867-   3 2.97   4 3.08   4 3.08
   8  0.750  0.553  0.133-   4 2.97   3 3.08   3 3.08
   9  0.750  0.890  0.880-   3 3.02   3 3.02   4 3.13
  10  0.250  0.110  0.120-   4 3.02   4 3.02   3 3.13
  11  0.750  0.390  0.620-   1 3.02   1 3.02   2 3.13
  12  0.250  0.610  0.380-   2 3.02   2 3.02   1 3.13

  LATTYP: Found a simple orthorhombic cell.
 ALAT       =     4.4557334469
 B/A-ratio  =     1.7332234028
 C/A-ratio  =     2.8698012294

  Lattice vectors:

 A1 = (   4.4557334469,   0.0000000000,   0.0000000000)
 A2 = (   0.0000000000,   7.7227814870,   0.0000000000)
 A3 = (   0.0000000000,   0.0000000000,  12.7870693238)

Analysis of symmetry for initial positions (statically):
 Subroutine PRICEL returns:
 Original cell was already a primitive cell.

 Routine SETGRP: Setting up the symmetry group for a
 simple orthorhombic supercell.

 Subroutine GETGRP returns: Found  8 space group operations
 (whereof  2 operations were pure point group operations)
 out of a pool of  8 trial point group operations.

The static configuration has the point symmetry S_2 .
 The point group associated with its full space group is D_2h.

Analysis of symmetry for dynamics (positions and initial velocities):
 Subroutine PRICEL returns:
 Original cell was already a primitive cell.

 Routine SETGRP: Setting up the symmetry group for a
 simple orthorhombic supercell.

 Subroutine GETGRP returns: Found  8 space group operations
 (whereof  2 operations were pure point group operations)
 out of a pool of  8 trial point group operations.

The dynamic configuration has the point symmetry S_2 .
 The point group associated with its full space group is D_2h.

 Subroutine INISYM returns: Found  8 space group operations
 (whereof  2 operations are pure point group operations),
 and found     1 'primitive' translations

 KPOINTS: 1x1x1

Automatic generation of k-mesh.
Space group operators:
 irot       det(A)        alpha          n_x          n_y          n_z        tau_x        tau_y        tau_z
    1     1.000000     0.000000     1.000000     0.000000     0.000000     0.000000     0.000000     0.000000
    2    -1.000000     0.000000     1.000000     0.000000     0.000000     0.000000     0.000000     0.000000
    3     1.000000   179.999999     0.000000     0.000000     1.000000    -0.000000     0.500000     0.500000
    4    -1.000000   179.999999     0.000000     0.000000     1.000000    -0.000000     0.500000     0.500000
    5     1.000000   179.999999    -0.000000     1.000000     0.000000     0.500000     0.500000     0.500000
    6    -1.000000   179.999999    -0.000000     1.000000     0.000000     0.500000     0.500000     0.500000
    7     1.000000   180.000000     1.000000     0.000000     0.000000     0.500000     0.000000     0.000000
    8    -1.000000   180.000000     1.000000     0.000000     0.000000     0.500000     0.000000     0.000000

 Subroutine IBZKPT returns following result:

 Found     84 irreducible k-points:

 Following reciprocal coordinates:
            Coordinates               Weight
  0.000000  0.000000  0.000000      1.000000
  0.083333  0.000000  0.000000      2.000000
  0.166667  0.000000  0.000000      2.000000
  0.250000  0.000000  0.000000      2.000000
  0.333333  0.000000  0.000000      2.000000
  0.416667  0.000000  0.000000      2.000000
  0.500000  0.000000  0.000000      1.000000
  0.000000  0.166667  0.000000      2.000000
  0.083333  0.166667  0.000000      4.000000
  0.166667  0.166667  0.000000      4.000000
  0.250000  0.166667  0.000000      4.000000
  0.333333  0.166667  0.000000      4.000000
  0.416667  0.166667  0.000000      4.000000
  0.500000  0.166667  0.000000      2.000000
  0.000000  0.333333  0.000000      2.000000
  0.083333  0.333333  0.000000      4.000000
  0.166667  0.333333  0.000000      4.000000
  0.250000  0.333333  0.000000      4.000000
  0.333333  0.333333  0.000000      4.000000
  0.416667  0.333333  0.000000      4.000000
  0.500000  0.333333  0.000000      2.000000
  0.000000  0.500000  0.000000      1.000000
  0.083333  0.500000  0.000000      2.000000
  0.166667  0.500000  0.000000      2.000000
  0.250000  0.500000  0.000000      2.000000
  0.333333  0.500000  0.000000      2.000000
  0.416667  0.500000  0.000000      2.000000
  0.500000  0.500000  0.000000      1.000000
  0.000000  0.000000  0.250000      2.000000
  0.083333  0.000000  0.250000      4.000000
  0.166667  0.000000  0.250000      4.000000
  0.250000  0.000000  0.250000      4.000000
  0.333333  0.000000  0.250000      4.000000
  0.416667  0.000000  0.250000      4.000000
  0.500000  0.000000  0.250000      2.000000
  0.000000  0.166667  0.250000      4.000000
  0.083333  0.166667  0.250000      8.000000
  0.166667  0.166667  0.250000      8.000000
  0.250000  0.166667  0.250000      8.000000
  0.333333  0.166667  0.250000      8.000000
  0.416667  0.166667  0.250000      8.000000
  0.500000  0.166667  0.250000      4.000000
  0.000000  0.333333  0.250000      4.000000
  0.083333  0.333333  0.250000      8.000000
  0.166667  0.333333  0.250000      8.000000
  0.250000  0.333333  0.250000      8.000000
  0.333333  0.333333  0.250000      8.000000
  0.416667  0.333333  0.250000      8.000000
  0.500000  0.333333  0.250000      4.000000
  0.000000  0.500000  0.250000      2.000000
  0.083333  0.500000  0.250000      4.000000
  0.166667  0.500000  0.250000      4.000000
  0.250000  0.500000  0.250000      4.000000
  0.333333  0.500000  0.250000      4.000000
  0.416667  0.500000  0.250000      4.000000
  0.500000  0.500000  0.250000      2.000000
  0.000000  0.000000  0.500000      1.000000
  0.083333  0.000000  0.500000      2.000000
  0.166667  0.000000  0.500000      2.000000
  0.250000  0.000000  0.500000      2.000000
[...]
  0.500000  0.166667  0.500000      2.000000
  0.000000  0.333333  0.500000      2.000000
  0.083333  0.333333  0.500000      4.000000
  0.166667  0.333333  0.500000      4.000000
  0.250000  0.333333  0.500000      4.000000
  0.333333  0.333333  0.500000      4.000000
  0.416667  0.333333  0.500000      4.000000
  0.500000  0.333333  0.500000      2.000000
  0.000000  0.500000  0.500000      1.000000
  0.083333  0.500000  0.500000      2.000000
  0.166667  0.500000  0.500000      2.000000
  0.250000  0.500000  0.500000      2.000000
  0.333333  0.500000  0.500000      2.000000
  0.416667  0.500000  0.500000      2.000000
  0.500000  0.500000  0.500000      1.000000

 Following cartesian coordinates:
            Coordinates               Weight
  0.000000  0.000000  0.000000      1.000000
  0.018702  0.000000  0.000000      2.000000
  0.037405  0.000000  0.000000      2.000000
  0.056107  0.000000  0.000000      2.000000
  0.074810  0.000000  0.000000      2.000000
  0.093512  0.000000  0.000000      2.000000
  0.112215  0.000000  0.000000      1.000000
  0.000000  0.021581  0.000000      2.000000
  0.018702  0.021581  0.000000      4.000000
  0.037405  0.021581  0.000000      4.000000
  0.056107  0.021581  0.000000      4.000000
  0.074810  0.021581  0.000000      4.000000
  0.093512  0.021581  0.000000      4.000000
  0.112215  0.021581  0.000000      2.000000
  0.000000  0.043162  0.000000      2.000000
  0.018702  0.043162  0.000000      4.000000
  0.037405  0.043162  0.000000      4.000000
  0.056107  0.043162  0.000000      4.000000
  0.074810  0.043162  0.000000      4.000000
  0.093512  0.043162  0.000000      4.000000
  0.112215  0.043162  0.000000      2.000000
  0.000000  0.064744  0.000000      1.000000
  0.018702  0.064744  0.000000      2.000000
  0.037405  0.064744  0.000000      2.000000
  0.056107  0.064744  0.000000      2.000000
  0.074810  0.064744  0.000000      2.000000
  0.093512  0.064744  0.000000      2.000000
  0.112215  0.064744  0.000000      1.000000
  0.000000  0.000000  0.019551      2.000000
  0.018702  0.000000  0.019551      4.000000
  0.037405  0.000000  0.019551      4.000000
  0.056107  0.000000  0.019551      4.000000
  0.074810  0.000000  0.019551      4.000000
  0.093512  0.000000  0.019551      4.000000
  0.112215  0.000000  0.019551      2.000000
  0.000000  0.021581  0.019551      4.000000
  0.018702  0.021581  0.019551      8.000000
  0.037405  0.021581  0.019551      8.000000
  0.056107  0.021581  0.019551      8.000000
  0.074810  0.021581  0.019551      8.000000
  0.093512  0.021581  0.019551      8.000000
  0.112215  0.021581  0.019551      4.000000
[...]
 k-point 77 :   0.5000 0.3333 0.5000  plane waves:    5192
 k-point 78 :   0.0000 0.5000 0.5000  plane waves:    5200
 k-point 79 :   0.0833 0.5000 0.5000  plane waves:    5216
 k-point 80 :   0.1667 0.5000 0.5000  plane waves:    5188
 k-point 81 :   0.2500 0.5000 0.5000  plane waves:    5164
 k-point 82 :   0.3333 0.5000 0.5000  plane waves:    5188
 k-point 83 :   0.4167 0.5000 0.5000  plane waves:    5200
 k-point 84 :   0.5000 0.5000 0.5000  plane waves:    5216

 maximum and minimum number of plane-waves per node :       671      627

 maximum number of plane-waves:      5228
 maximum index in each direction:
   IXMAX=    6   IYMAX=   10   IZMAX=   18
   IXMIN=   -6   IYMIN=  -11   IZMIN=  -18

 real space projection operators:
  max/ min on nodes  :        722.77        532.30

 parallel 3D FFT for wavefunctions:
    minimum data exchange during FFTs selected (reduces bandwidth)
 parallel 3D FFT for charge:
    minimum data exchange during FFTs selected (reduces bandwidth)

 Broyden mixing: mesh for mixing (old mesh)
   NGX = 13   NGY = 21   NGZ = 37
  (NGX  = 56   NGY  = 96   NGZ  =144)
  gives a total of  10101 points

 initial charge density was supplied:
 charge density of overlapping atoms calculated
 number of electron     112.0000000 magnetization
 keeping initial charge density in first step

 Maximum index for non-local projection operator          598
 Maximum index for augmentation-charges         1385 (set IRDMAX)

 First call to EWALD:  gamma=   0.233
 Maximum number of real-space cells 4x 3x 2
 Maximum number of reciprocal cells 2x 3x 4

--------------------------------------- Iteration      1(   1)  ---------------------------------------

 eigenvalue-minimisations  : 12272
 total energy-change (2. order) : 0.5278265E+03  (-0.3708800E+04)
 number of electron     112.0000000 magnetization
 augmentation part      112.0000000 magnetization

 Free energy of the ion-electron system (eV)
  alpha Z        PSCENC =       252.07583680
  Ewald energy   TEWEN  =     -6350.48804996
  -Hartree energ DENC   =     -2992.97264080
  -exchange      EXHF   =         0.00000000
  -V(xc)+E(xc)   XCENC  =       323.43019107
  PAW double counting   =      7994.70333898    -8344.36159301
  entropy T*S    EENTRO =        -0.00030584
  eigenvalues    EBANDS =        51.63221794
  atomic energy  EATOM  =      9593.80746854
  Solvation  Ediel_sol  =         0.00000000
  free energy    TOTEN  =       527.82646375 eV

  energy without entropy =      527.82676958  energy(sigma->0) =      527.82661666

[...]

 eigenvalue-minimisations  : 13568
 total energy-change (2. order) :-0.8942346E+03  (-0.8496338E+03)
 number of electron     112.0000000 magnetization
 augmentation part      112.0000000 magnetization

[...]

 Broyden mixing:
  rms(total) = 0.66420E+00    rms(broyden)= 0.66403E+00
  rms(prec ) = 0.83753E+00
  weight for this iteration     100.00

[...]

 eigenvalues of (default mixing * dielectric matrix)
  average eigenvalue GAMMA=   1.1585
  1.1585

[...]

 eigenvalue-minimisations  :  7192
 total energy-change (2. order) : 0.1720450E-05  (-0.4652881E-07)
 number of electron     112.0000000 magnetization
 augmentation part       11.1895817 magnetization

 Broyden mixing:
  rms(total) = 0.59777E-04    rms(broyden)= 0.55615E-04
  rms(prec ) = 0.69263E-04
  weight for this iteration     100.00

[...]

 Broyden mixing:
  rms(total) = 0.38861E-04    rms(broyden)= 0.32112E-04
  rms(prec ) = 0.35933E-04
  weight for this iteration     100.00
  WARNING: grid for Broyden might be to small

 eigenvalues of (default mixing * dielectric matrix)
  average eigenvalue GAMMA=   1.6420
  3.3635  2.5806  2.5079  2.5079  1.3559  1.3559  1.2124  1.0670  1.0670  0.8985
  0.8934  0.8934

[...]

--------------------------------------- Iteration      1(  18)  ---------------------------------------

 eigenvalue-minimisations  :  7072
 total energy-change (2. order) :-0.8901022E-06  (-0.9550692E-08)
 number of electron     112.0000000 magnetization
 augmentation part       11.1895045 magnetization

 Free energy of the ion-electron system (eV)
  alpha Z        PSCENC =       252.07583680
  Ewald energy   TEWEN  =     -6350.48804996
  -Hartree energ DENC   =     -2993.75364001
  -exchange      EXHF   =         0.00000000
  -V(xc)+E(xc)   XCENC  =       339.68290606
  PAW double counting   =      8535.45371658    -8882.48340170
  entropy T*S    EENTRO =        -0.00000000
  eigenvalues    EBANDS =      -963.40314015
  atomic energy  EATOM  =      9593.80746854
  Solvation  Ediel_sol  =         0.00000000
  free energy    TOTEN  =      -469.10830383 eV

  energy without entropy =     -469.10830383  energy(sigma->0) =     -469.10830383

 average (electrostatic) potential at core
  the test charge radii are     1.1541  1.0178
  (the norm of the test charge is              1.0000)
       1-101.1119       2-101.1119       3-101.1119       4-101.1119       5 -68.6560
       6 -68.6560       7 -68.6560       8 -68.6560       9 -68.6316      10 -68.6316
      11 -68.6316      12 -68.6316

 E-fermi :   0.3791     XC(G=0):  -8.4011     alpha+bet : -7.1885

 k-point     1 :       0.0000    0.0000    0.0000
  band No.  band energies     occupation
      1     -15.9491      2.00000
      2     -15.9450      2.00000
      3     -15.8234      2.00000
      4     -15.8234      2.00000
      5     -15.8209      2.00000
      6     -15.8208      2.00000
      7     -15.8145      2.00000
      8     -15.8145      2.00000
      9     -15.7918      2.00000
     10     -15.7918      2.00000
     11     -15.7859      2.00000
     12     -15.7857      2.00000
     13     -15.7734      2.00000
     14     -15.7734      2.00000
     15     -15.7701      2.00000
     16     -15.7699      2.00000
     17     -15.7699      2.00000
     18     -15.7695      2.00000
     19     -15.7523      2.00000
     20     -15.7522      2.00000
     21     -14.0868      2.00000
     22     -13.9642      2.00000
     23     -13.6966      2.00000
     24     -13.6807      2.00000
     25     -13.5632      2.00000
     26     -13.5543      2.00000
     27     -13.4329      2.00000
     28     -13.3146      2.00000
     29      -7.0034      2.00000
     30      -6.9912      2.00000
     31      -6.4910      2.00000
     32      -6.4202      2.00000
     33      -2.8771      2.00000
     34      -2.6079      2.00000
     35      -1.9883      2.00000
     36      -1.7877      2.00000
     37      -1.7749      2.00000
     38      -1.3918      2.00000
     39      -1.3269      2.00000
     40      -1.3143      2.00000
     41      -1.1687      2.00000
     42      -1.0645      2.00000
     43      -1.0387      2.00000
     44      -0.9504      2.00000
     45      -0.8962      2.00000
     46      -0.8496      2.00000
     47      -0.8356      2.00000
     48      -0.8309      2.00000
     49      -0.7974      2.00000
     50      -0.6949      2.00000
     51      -0.6945      2.00000
     52      -0.6798      2.00000
     53      -0.4568      2.00000
     54      -0.2374      2.00000
     55      -0.1017      2.00000
     56       0.0860      2.00000
     57       3.1186      0.00000
     58       3.2943      0.00000
     59       3.8997      0.00000
     60       4.4854      0.00000
     61       4.6079      0.00000
     62       4.6410      0.00000
     63       4.6612      0.00000
     64       4.7327      0.00000
     65       5.2679      0.00000
     66       5.5586      0.00000
     67       5.6391      0.00000
     68       5.7099      0.00000
     69       7.4774      0.00000
     70       7.6689      0.00000
     71       7.9202      0.00000
     72       8.4014      0.00000

[...]

 k-point    84 :       0.5000    0.5000    0.5000
  band No.  band energies     occupation
      1     -15.9479      2.00000
      2     -15.9479      2.00000
      3     -15.9479      2.00000
      4     -15.9479      2.00000
      5     -15.8171      2.00000
      6     -15.8171      2.00000
      7     -15.8171      2.00000
      8     -15.8171      2.00000
      9     -15.7829      2.00000
     10     -15.7829      2.00000
     11     -15.7829      2.00000
     12     -15.7829      2.00000
     13     -15.7671      2.00000
     14     -15.7671      2.00000
     15     -15.7671      2.00000
     16     -15.7671      2.00000
     17     -15.7549      2.00000
     18     -15.7549      2.00000
     19     -15.7549      2.00000
     20     -15.7549      2.00000
     21     -13.6417      2.00000
     22     -13.6417      2.00000
     23     -13.6417      2.00000
     24     -13.6417      2.00000
     25     -13.3906      2.00000
     26     -13.3906      2.00000
     27     -13.3906      2.00000
     28     -13.3906      2.00000
     29      -6.9924      2.00000
     30      -6.9924      2.00000
     31      -6.9924      2.00000
     32      -6.9924      2.00000
     33      -2.7900      2.00000
     34      -2.7900      2.00000
     35      -2.7900      2.00000
     36      -2.7900      2.00000
     37      -1.8585      2.00000
     38      -1.8585      2.00000
     39      -1.8585      2.00000
     40      -1.8585      2.00000
     41      -1.5164      2.00000
     42      -1.5164      2.00000
     43      -1.5164      2.00000
     44      -1.5164      2.00000
     45      -0.9905      2.00000
     46      -0.9905      2.00000
     47      -0.9905      2.00000
     48      -0.9905      2.00000
     49      -0.7457      2.00000
     50      -0.7457      2.00000
     51      -0.7457      2.00000
     52      -0.7457      2.00000
     53      -0.1625      2.00000
     54      -0.1625      2.00000
     55      -0.1625      2.00000
     56      -0.1625      2.00000
     57       4.1210      0.00000
     58       4.1210      0.00000
     59       4.1210      0.00000
     60       4.1210      0.00000
     61       5.3949      0.00000
     62       5.3949      0.00000
     63       5.3949      0.00000
     64       5.3949      0.00000
     65       5.6973      0.00000
     66       5.6973      0.00000
     67       5.6973      0.00000
     68       5.6973      0.00000
     69       7.8132      0.00000
     70       7.8132      0.00000
     71       7.8132      0.00000
     72       7.8132      0.00000

 soft charge-density along one line, spin component           1
         0         1         2         3         4         5         6         7         8         9
 total charge-density along one line

------------------------ aborting loop because EDIFF is reached ----------------------------------------

 total charge

# of ion       s       p       d       tot
    1        1.560   0.410   9.830  11.800
    2        1.560   0.410   9.830  11.800
    3        1.560   0.410   9.830  11.800
    4        1.560   0.410   9.830  11.800
    5        1.621   3.254   0.010   4.885
    6        1.621   3.254   0.010   4.885
    7        1.621   3.254   0.010   4.885
    8        1.621   3.254   0.010   4.885
    9        1.621   3.255   0.009   4.885
   10        1.621   3.255   0.009   4.885
   11        1.621   3.255   0.009   4.885
   12        1.621   3.255   0.009   4.885
tot         19.208  27.676  39.395  86.279

  FORCE on cell =-STRESS in cart. coord.  units (eV):
  Direction    XX          YY          ZZ          XY          YZ          ZX
  Alpha Z   252.07584   252.07584   252.07584
  Ewald   -1465.38835 -1535.74380 -3349.36421     0.00000     0.00000     0.00000
  Hartree  1500.70422  1453.40391    39.65266    -0.00000    -0.00000    -0.00000
  E(xc)    -499.60114  -499.62033  -499.72599    -0.02240     0.00006    -0.00021
  Local   -2290.31593 -2173.06798  1049.98666    -0.00000     0.00000    -0.00000
  n-local   672.16855   672.24985   668.37455    -0.22877     0.00061    -0.00038
  augment   471.54954   471.61496   470.98351    -0.00000     0.00000    -0.00002
  Kinetic  1358.36416  1358.68889  1367.78471    -0.65718    -0.00015    -0.01231
  Fock        0.00000     0.00000     0.00000     0.00000     0.00000     0.00000
  Total      -0.44311    -0.39866    -0.23227    -0.00000     0.00000     0.00000
  in kB      -1.61347    -1.45160    -0.84573    -0.00000     0.00000     0.00000

 VOLUME and BASIS-vectors are now :
  energy-cutoff  :      300.00
  volume of cell :      440.01
      direct lattice vectors                 reciprocal lattice vectors
     4.455733447  0.000000000  0.000000000     0.224429942 -0.000000000  0.000000000
     0.000000000  7.722781487  0.000000000    -0.000000000  0.129487025  0.000000000
     0.000000000  0.000000000 12.787069324     0.000000000  0.000000000  0.078204002

  length of vectors
     4.455733447  7.722781487 12.787069324     0.224429942  0.129487025  0.078204002

 FORCES acting on ions
    electron-ion (+dipol)            ewald-force                    non-local-force                 convergence-correction
   0.319E-12 -.351E+02 0.547E+02   0.461E-13 0.362E+02 -.576E+02   -.173E-16 -.117E+01 0.287E+01   0.179E-13 0.124E-03 -.264E-03
   0.874E-12 0.351E+02 -.547E+02   -.521E-13 -.362E+02 0.576E+02   0.104E-16 0.117E+01 -.287E+01   -.254E-13 -.124E-03 0.264E-03
   0.398E-12 -.351E+02 -.547E+02   0.423E-13 0.362E+02 0.576E+02   -.139E-16 -.117E+01 -.287E+01   -.586E-13 0.124E-03 0.264E-03
   0.985E-12 0.351E+02 0.547E+02   -.299E-13 -.362E+02 -.576E+02   0.694E-17 0.117E+01 0.287E+01   0.423E-13 -.124E-03 -.264E-03
   -.572E-13 0.261E+01 -.167E+03   -.160E-13 -.256E+01 0.168E+03   0.000E+00 -.453E-01 -.146E+01   -.963E-15 -.568E-04 0.153E-04
   -.498E-13 -.261E+01 0.167E+03   0.805E-14 0.256E+01 -.168E+03   0.000E+00 0.453E-01 0.146E+01   -.611E-14 0.568E-04 -.153E-04
   0.370E-13 0.261E+01 0.167E+03   -.124E-13 -.256E+01 -.168E+03   0.347E-17 -.453E-01 0.146E+01   0.246E-14 -.568E-04 -.153E-04
   0.231E-13 -.261E+01 -.167E+03   0.457E-14 0.256E+01 0.168E+03   0.000E+00 0.453E-01 -.146E+01   -.874E-14 0.568E-04 0.153E-04
   0.512E-13 -.780E+01 0.153E+03   -.338E-13 0.776E+01 -.154E+03   0.173E-17 0.246E-01 0.136E+01   0.211E-13 0.570E-04 0.134E-04
   0.419E-13 0.780E+01 -.153E+03   0.242E-13 -.776E+01 0.154E+03   -.173E-17 -.246E-01 -.136E+01   -.273E-13 -.570E-04 -.134E-04
   -.270E-13 -.780E+01 -.153E+03   -.463E-13 0.776E+01 0.154E+03   0.173E-17 0.246E-01 -.136E+01   0.159E-13 0.570E-04 -.134E-04
   -.502E-13 0.780E+01 0.153E+03   0.544E-13 -.776E+01 -.154E+03   -.173E-17 -.246E-01 0.136E+01   -.237E-13 -.570E-04 0.134E-04
   0.259E-11 -.433E-11 0.895E-11   -.109E-13 -.711E-14 0.114E-12   -.104E-16 0.444E-15 0.666E-15   -.513E-13 -.208E-12 0.717E-12

 POSITION                                       TOTAL-FORCE (eV/Angst)
      1.11393      1.89677      6.21469        -0.000000     -0.010497     -0.001564
      3.34180      5.82601      6.57238         0.000000      0.010497      0.001564
      1.11393      5.75816      0.17884        -0.000000     -0.010497      0.001564
      3.34180      1.96462     12.60823         0.000000      0.010497     -0.001564
      1.11393      7.31339      8.08837         0.000000      0.003513     -0.009436
      3.34180      0.40939      4.69870        -0.000000     -0.003513      0.009436
      1.11393      3.45200     11.09223         0.000000      0.003513      0.009436
      3.34180      4.27079      1.69484        -0.000000     -0.003513     -0.009436
      3.34180      6.87034     11.25548        -0.000000     -0.007875      0.005153
      1.11393      0.85244      1.53159         0.000000      0.007875     -0.005153
      3.34180      3.00895      7.92512        -0.000000     -0.007875     -0.005153
      1.11393      4.71383      4.86195         0.000000      0.007875      0.005153
    total drift:                                0.000000     -0.000000      0.000000

  FREE ENERGIE OF THE ION-ELECTRON SYSTEM (eV)
  free  energy   TOTEN  =      -469.10830383 eV

  energy  without entropy=     -469.10830383  energy(sigma->0) =     -469.10830383

 stress matrix after NEB project (eV)
     -0.44311     -0.00000      0.00000
     -0.00000     -0.39866      0.00000
      0.00000      0.00000     -0.23227
  FORCES: max atom, RMS     0.010613    0.010043
  FORCE total and by dimension    0.034790    0.010497
  Stress total and by dimension    0.639707    0.443113

 total charge

# of ion       s       p       d       tot
    1        1.560   0.410   9.830  11.800
    2        1.560   0.410   9.830  11.800
    3        1.560   0.410   9.830  11.800
    4        1.560   0.410   9.830  11.800
    5        1.621   3.254   0.010   4.885
    6        1.621   3.254   0.010   4.885
    7        1.621   3.254   0.010   4.885
    8        1.621   3.254   0.010   4.885
    9        1.621   3.255   0.009   4.885
   10        1.621   3.255   0.009   4.885
   11        1.621   3.255   0.009   4.885
   12        1.621   3.255   0.009   4.885
tot         19.208  27.676  39.395  86.279