 vasp.5.4.4.18Apr17-6-g9f103f2a35 (build Jun 22 2020 09:27:21) complex

 INCAR:
 POTCAR:    PAW_PBE Cs_sv 08Apr2002
 POTCAR:    PAW_PBE Pb_d 06Sep2000
 POTCAR:    PAW_PBE Br 06Sep2000
 POTCAR:    PAW_PBE Cs_sv 08Apr2002
 POTCAR:    PAW_PBE Cs_sv 08Apr2002
   VRHFIN =Cs: 5s5p6s

   TITEL  = PAW_PBE Cs_sv 08Apr2002
   POMASS =  132.900; ZVAL   =    9.000    mass and valenz
   ENMAX  =  220.318; ENMIN  =  165.238 eV

   TITEL  = PAW_PBE Pb_d 06Sep2000
   POMASS =  207.200; ZVAL   =   14.000    mass and valenz
   ENMAX  =  237.835; ENMIN  =  178.376 eV

   TITEL  = PAW_PBE Br 06Sep2000
   POMASS =   79.904; ZVAL   =    7.000    mass and valenz
   ENMAX  =  216.285; ENMIN  =  162.214 eV

   TITEL  = PAW_PBE Cs_sv 08Apr2002
   POMASS =  132.900; ZVAL   =    9.000    mass and valenz
   ENMAX  =  220.318; ENMIN  =  165.238 eV

 Optimization of the real space projectors (new method)

 maximal supplied QI-value         = 15.12
 optimisation between [QCUT,QGAM] = [  8.77, 17.69] = [ 21.53, 87.61] Ry
 Optimized for a Real-space Cutoff    1.85 Angstroem

   l    n(q)    QCUT    max X(q) W(low)/X(q) W(high)/X(q)  e(spline)
   0     10     8.768    25.322    0.81E-04    0.51E-04    0.48E-06
   0     10     8.768    99.187    0.78E-04    0.50E-04    0.47E-06
   1      9     8.768    11.761    0.21E-03    0.20E-03    0.37E-06
   1      9     8.768     8.275    0.24E-03    0.22E-03    0.41E-06
   2      9     8.768     3.829    0.23E-04    0.15E-03    0.18E-06
 Optimization of the real space projectors (new method)

[...]

   l    n(q)    QCUT    max X(q) W(low)/X(q) W(high)/X(q)  e(spline)
   0      8     8.797   175.082    0.82E-04    0.14E-03    0.89E-07
   0      8     8.797   174.004    0.79E-04    0.14E-03    0.86E-07
   1      8     8.797    54.315    0.16E-03    0.14E-04    0.30E-06
   1      8     8.797    42.441    0.16E-03    0.14E-04    0.30E-06
   2      7     8.797     3.596    0.92E-04    0.15E-03    0.85E-07
 Optimization of the real space projectors (new method)

 maximal supplied QI-value         = 15.12
 optimisation between [QCUT,QGAM] = [  8.77, 17.69] = [ 21.53, 87.61] Ry
 Optimized for a Real-space Cutoff    1.85 Angstroem

   l    n(q)    QCUT    max X(q) W(low)/X(q) W(high)/X(q)  e(spline)
   0     10     8.768    25.322    0.81E-04    0.51E-04    0.48E-06
   0     10     8.768    99.187    0.78E-04    0.50E-04    0.47E-06
   1      9     8.768    11.761    0.21E-03    0.20E-03    0.37E-06
   1      9     8.768     8.275    0.24E-03    0.22E-03    0.41E-06
   2      9     8.768     3.829    0.23E-04    0.15E-03    0.18E-06
  PAW_PBE Cs_sv 08Apr2002               :
  PAW_PBE Pb_d 06Sep2000                :
  PAW_PBE Br 06Sep2000                  :
  PAW_PBE Cs_sv 08Apr2002               :

 POSCAR: Cs7 Pb8 Br24
  positions in direct lattice

 METAGGA = SCAN     LMAXTAU =  6    LMIXTAU =  F

 VTST: version 3.2, (02/03/18)

 CHAIN: initializing optimizer

 OPT: Using VASP Conjugate-Gradient optimizer
 CHAIN: Read ICHAIN            0

 POSCAR: Cs7 Pb8 Br24
  positions in direct lattice

 ion  position               nearest neighbor table
   1  0.270  0.249  0.202-
   2  0.773  0.249  0.721-
   3  0.208  0.754  0.765-
   4  0.292  0.246  0.735-
   5  0.727  0.751  0.779-
   6  0.230  0.751  0.298-
   7  0.997  0.998  0.005-  29 2.96  28 2.98  19 3.00  17 3.00  34 3.03  31 3.06
   8  0.503  0.002  0.495-  32 2.96  33 2.98  20 3.00  18 3.00  27 3.03  30 3.06
   9  0.503  0.998  0.001-  29 2.99  33 3.00  21 3.00  15 3.01  31 3.02  27 3.02
  10  0.997  0.002  0.499-  32 2.98  28 3.00  16 3.00  22 3.01  30 3.02  34 3.02
  11  0.500  0.502  0.997-  35 2.98  15 2.99  37 2.99  23 3.00  21 3.00  25 3.02
  12  1.000  0.498  0.503-  24 2.98  22 2.99  26 2.99  36 3.00  16 3.00  38 3.02
  13  0.000  0.501  0.003-  35 2.96  17 2.99  38 3.00  19 3.00  26 3.00  23 3.02
  14  0.500  0.499  0.497-  24 2.96  20 2.99  25 3.00  18 3.00  37 3.00  36 3.02
  15  0.465  0.749  0.949-  11 2.99   9 3.01
  16  0.971  0.750  0.472-  10 3.00  12 3.00
  17  0.975  0.250  0.970-  13 2.99   7 3.00
  18  0.449  0.251  0.469-  14 3.00   8 3.00
  19  0.051  0.750  0.031-   7 3.00  13 3.00
  20  0.525  0.750  0.530-  14 2.99   8 3.00
  21  0.529  0.250  0.028-   9 3.00  11 3.00
  22  0.035  0.251  0.551-  12 2.99  10 3.01
  23  0.248  0.465  0.949-  11 3.00  13 3.02
  24  0.748  0.459  0.473-  39 2.65  14 2.96  12 2.98
  25  0.443  0.530  0.246-  14 3.00  11 3.02
  26  0.958  0.542  0.750-  12 2.99  13 3.00
  27  0.548  0.035  0.750-   9 3.02   8 3.03
  28  0.058  0.030  0.254-   7 2.98  10 3.00
  29  0.753  0.949  0.041-   7 2.96   9 2.99
  30  0.250  0.969  0.549-  10 3.02   8 3.06
  31  0.250  0.031  0.951-   9 3.02   7 3.06
  32  0.747  0.051  0.459-   8 2.96  10 2.98
  33  0.442  0.970  0.246-   8 2.98   9 3.00
  34  0.952  0.965  0.750-  10 3.02   7 3.03
  35  0.752  0.541  0.027-  39 2.65  13 2.96  11 2.98
  36  0.252  0.535  0.551-  12 3.00  14 3.02
  37  0.542  0.459  0.750-  11 2.99  14 3.00
  38  0.057  0.470  0.254-  13 3.00  12 3.02
  39  0.750  0.499  0.250-  24 2.65  35 2.65

IMPORTANT INFORMATION: All symmetrisations will be switched off!
NOSYMM: (Re-)initialisation of all symmetry stuff for point group C_1.

 KPOINTS: 1x1x1

Automatic generation of k-mesh.
Space group operators:
 irot       det(A)        alpha          n_x          n_y          n_z        tau_x        tau_y        tau_z
    1     1.000000     0.000000     1.000000     0.000000     0.000000     0.000000     0.000000     0.000000

 Subroutine IBZKPT returns following result:

 Found      8 irreducible k-points:

 Following reciprocal coordinates:
            Coordinates               Weight
  0.000000  0.000000  0.000000      1.000000
  0.500000  0.000000  0.000000      1.000000
  0.000000  0.500000  0.000000      1.000000
  0.500000  0.500000  0.000000      1.000000
  0.000000  0.000000  0.500000      1.000000
  0.500000  0.000000  0.500000      1.000000
  0.000000  0.500000  0.500000      1.000000
  0.500000  0.500000  0.500000      1.000000

 Following cartesian coordinates:
            Coordinates               Weight
  0.000000  0.000000  0.000000      1.000000
  0.029691  0.000000  0.030948      1.000000
  0.000000  0.042503  0.000000      1.000000
  0.029691  0.042503  0.030948      1.000000
 -0.029691  0.000000  0.030948      1.000000
  0.000000  0.000000  0.061897      1.000000
 -0.029691  0.042503  0.030948      1.000000
  0.000000  0.042503  0.061897      1.000000

 SYSTEM =  CsPbBr3 cubic bulk
 POSCAR =  Cs7 Pb8 Br24

 Startparameter for this run:
   NWRITE =      2    write-flag & timer
   PREC   = accura    normal or accurate (medium, high low for compatibility)
   ISTART =      0    job   : 0-new  1-cont  2-samecut
   ICHARG =      2    charge: 1-file 2-atom 10-const
   ISPIN  =      1    spin polarized calculation?
   LNONCOLLINEAR =      F non collinear calculations
   LSORBIT =      F    spin-orbit coupling
   INIWAV =      1    electr: 0-lowe 1-rand  2-diag
   LASPH  =      T    aspherical Exc in radial PAW
   METAGGA=      F    non-selfconsistent MetaGGA calc.

 Electronic Relaxation 1
   ENCUT  =  300.0 eV  22.05 Ry    4.70 a.u.  16.48 16.61 16.48*2*pi/ulx,y,z
   ENINI  =  300.0     initial cutoff
   ENAUG  =  503.9 eV  augmentation charge cutoff
   NELM   =    200;   NELMIN=  2; NELMDL= -5     # of ELM steps
   EDIFF  = 0.1E-05   stopping-criterion for ELM
   LREAL  =      T    real-space projection
   NLSPLINE    = F    spline interpolate recip. space projectors
   LCOMPAT=      F    compatible to vasp.4.4
   GGA_COMPAT  = T    GGA compatible to vasp.4.4-vasp.4.6
   LMAXPAW     = -100 max onsite density
   LMAXMIX     =    2 max onsite mixed and CHGCAR
   VOSKOWN=      0    Vosko Wilk Nusair interpolation
   ROPT   =   -0.00025  -0.00025  -0.00025  -0.00025
 Ionic relaxation
   EDIFFG = -.1E-01   stopping-criterion for IOM
   NSW    =      0    number of steps for IOM
   NBLOCK =      1;   KBLOCK =      1    inner block; outer block
   IBRION =     -1    ionic relax: 0-MD 1-quasi-New 2-CG
   NFREE  =      1    steps in history (QN), initial steepest desc. (CG)
   ISIF   =      2    stress and relaxation
   IWAVPR =     10    prediction:  0-non 1-charg 2-wave 3-comb
   ISYM   =      0    0-nonsym 1-usesym 2-fastsym
   LCORR  =      T    Harris-Foulkes like correction to forces

   POTIM  = 0.5000    time-step for ionic-motion
   TEIN   =    0.0    initial temperature
   TEBEG  =    0.0;   TEEND  =   0.0 temperature during run
   SMASS  =  -3.00    Nose mass-parameter (am)
   estimated Nose-frequenzy (Omega)   =  0.10E-29 period in steps =****** mass=  -0.311E-26a.u.
   SCALEE = 1.0000    scale energy and forces
   NPACO  =    256;   APACO  = 16.0  distance and # of slots for P.C.
   PSTRESS=    0.0 pullay stress

  Mass of Ions in am
   POMASS = 132.90207.20 79.90132.90
  Ionic Valenz
   ZVAL   =   9.00 14.00  7.00  9.00
  Atomic Wigner-Seitz radii
  virtual crystal weights
   VCA    =   1.00  1.00  1.00  1.00
   NELECT =     344.0000    total number of electrons
   NUPDOWN=       0.0000    fix difference up-down

 DOS related values:
   EMIN   =  10.00;   EMAX   =-10.00  energy-range for DOS
   EFERMI =   0.00
   ISMEAR =     0;   SIGMA  =   0.01  broadening in eV -4-tet -1-fermi 0-gaus

 Electronic relaxation 2 (details)
   IALGO  =     38    algorithm
   LDIAG  =      T    sub-space diagonalisation (order eigenvalues)
   LSUBROT=      F    optimize rotation matrix (better conditioning)
   TURBO    =      0    0=normal 1=particle mesh
   IRESTART =      0    0=no restart 2=restart with 2 vectors
   NREBOOT  =      0    no. of reboots
   NMIN     =      0    reboot dimension
   EREF     =   0.00    reference energy to select bands
   IMIX   =      4    mixing-type and parameters
     AMIX     =   0.40;   BMIX     =  1.00
     AMIX_MAG =   1.60;   BMIX_MAG =  1.00
     AMIN     =   0.10
     WC   =   100.;   INIMIX=   1;  MIXPRE=   1;  MAXMIX= -45

 Intra band minimization:
   WEIMIN = 0.0000     energy-eigenvalue tresh-hold
   EBREAK =  0.12E-08  absolut break condition
   DEPER  =   0.30     relativ break condition

   TIME   =   0.40     timestep for ELM

  volume/ion in A,a.u.               =      41.03       276.90
  Fermi-wavevector in a.u.,A,eV,Ry     =   0.980685  1.853227 13.085320  0.961744
  Thomas-Fermi vector in A             =   2.111635

 Write flags
   LWAVE        =      F    write WAVECAR
   LDOWNSAMPLE  =      F    k-point downsampling of WAVECAR
   LCHARG       =      F    write CHGCAR
   LVTOT        =      F    write LOCPOT, total local potential
   LVHAR        =      T    write LOCPOT, Hartree potential only
   LELF         =      F    write electronic localiz. function (ELF)
   LORBIT       =     10    0 simple, 1 ext, 2 COOP (PROOUT), +10 PAW based schemes

 Dipole corrections
   LMONO  =      F    monopole corrections only (constant potential shift)
   LDIPOL =      F    correct potential (dipole corrections)
   IDIPOL =      0    1-x, 2-y, 3-z, 4-all directions
   EPSILON=  1.0000000 bulk dielectric constant

 Exchange correlation treatment:
   GGA     =    --    GGA type
   VOSKOWN=      0    Vosko Wilk Nusair interpolation
   LHFCALC =     F    Hartree Fock is set to
[...]
     14     -16.8069      2.00000
     15     -16.8056      2.00000
     16     -16.7473      2.00000
     17     -16.7471      2.00000
     18     -16.7287      2.00000
     19     -16.7286      2.00000
     20     -16.7258      2.00000
     21     -16.7248      2.00000
     22     -16.7130      2.00000
     23     -16.7128      2.00000
     24     -16.7065      2.00000
     25     -16.7057      2.00000
     26     -16.6960      2.00000
     27     -16.6952      2.00000
     28     -16.5357      2.00000
     29     -16.5354      2.00000
     30     -16.5235      2.00000
     31     -16.5229      2.00000
     32     -16.5146      2.00000
     33     -16.5134      2.00000
     34     -16.4999      2.00000
     35     -16.4994      2.00000
     36     -16.4282      2.00000
     37     -16.4274      2.00000
     38     -16.4173      2.00000
     39     -16.4166      2.00000
     40     -16.4111      2.00000
     41     -16.4109      2.00000
     42     -16.4072      2.00000
     43     -16.4065      2.00000
     44     -16.4061      2.00000
     45     -16.4059      2.00000
     46     -16.3932      2.00000
     47     -16.3929      2.00000
     48     -15.1707      2.00000
     49     -14.7238      2.00000
     50     -14.5794      2.00000
     51     -14.4896      2.00000
     52     -14.4639      2.00000
     53     -14.3504      2.00000
     54     -14.2868      2.00000
     55     -14.2645      2.00000
     56     -14.2634      2.00000
     57     -14.2559      2.00000
     58     -14.2212      2.00000
     59     -14.2010      2.00000
     60     -14.0870      2.00000
[...]
    194       4.6496      0.00000
    195       4.7002      0.00000
    196       4.7173      0.00000
    197       5.6053      0.00000
    198       6.0984      0.00000
    199       6.1356      0.00000
    200       6.1449      0.00000
    201       6.2003      0.00000
    202       6.2261      0.00000
    203       6.2457      0.00000
    204       6.3049      0.00000
    205       6.3158      0.00000
    206       6.3654      0.00000
    207       6.3856      0.00000
    208       6.4548      0.00000

 soft charge-density along one line, spin component           1
         0         1         2         3         4         5         6         7         8         9
 total charge-density along one line

------------------------ aborting loop because EDIFF is reached ----------------------------------------

 total charge

# of ion       s       p       d       tot
    1        1.786   4.721   0.020   6.528
    2        1.786   4.721   0.020   6.527
    3        1.787   4.721   0.021   6.530
    4        1.787   4.721   0.021   6.530
    5        1.786   4.721   0.020   6.527
    6        1.786   4.721   0.020   6.528
    7        1.554   0.418   9.833  11.806
    8        1.554   0.419   9.833  11.806
    9        1.554   0.417   9.833  11.805
   10        1.554   0.417   9.833  11.804
   11        1.553   0.430   9.834  11.817
   12        1.553   0.430   9.834  11.817
   13        1.554   0.428   9.834  11.816
   14        1.554   0.428   9.834  11.816
   15        1.614   3.290   0.006   4.910
   16        1.615   3.282   0.006   4.903
   17        1.614   3.284   0.006   4.904
   18        1.614   3.290   0.006   4.911
   19        1.614   3.290   0.006   4.911
   20        1.614   3.284   0.006   4.904
   21        1.615   3.282   0.006   4.903
   22        1.614   3.290   0.006   4.910
   23        1.614   3.287   0.006   4.908
   24        1.630   3.351   0.021   5.001
   25        1.615   3.291   0.006   4.913
   26        1.615   3.288   0.006   4.909
   27        1.614   3.290   0.006   4.910
   28        1.614   3.286   0.006   4.907
   29        1.615   3.276   0.006   4.897
   30        1.614   3.291   0.006   4.910
   31        1.614   3.291   0.006   4.910
   32        1.615   3.276   0.006   4.897
   33        1.614   3.286   0.006   4.907
   34        1.614   3.290   0.006   4.910
   35        1.630   3.351   0.021   5.001
   36        1.614   3.287   0.006   4.908
   37        1.615   3.288   0.006   4.909
   38        1.615   3.291   0.006   4.913
   39        1.827   4.757   0.132   6.716
tot         63.753 115.482  79.100 258.335

  FORCE on cell =-STRESS in cart. coord.  units (eV):
  Direction    XX          YY          ZZ          XY          YZ          ZX
  Alpha Z   835.99855   835.99855   835.99855
  Ewald   -5559.32262 -6167.45108 -5632.13084    86.58377   -56.03456    -2.82960
  Hartree  2746.79780  2355.07197  2693.59267    52.91225   -25.81170    33.31529
  E(xc)   -1447.86323 -1448.41394 -1447.91918     0.15841    -0.13856    -0.38458
  Local   -3573.35645 -2580.08049 -3447.78454  -138.68868    80.73642   -33.72126
  n-local  1796.47545  1796.15470  1795.92251     0.23502    -0.18324     0.23695
  augment   824.68479   824.97494   824.08193    -0.00681     0.03046     0.27494
  Kinetic  4397.64992  4387.80248  4398.47766     2.58636    -2.51659   -10.23061
  Fock        0.00000     0.00000     0.00000     0.00000     0.00000     0.00000
  Total      21.06421     4.05714    20.23875     3.78032    -3.91777   -13.33887
  in kB      21.08929     4.06197    20.26285     3.78482    -3.92243   -13.35475

 VOLUME and BASIS-vectors are now :
  energy-cutoff  :      300.00
  volume of cell :     1600.27
      direct lattice vectors                 reciprocal lattice vectors
     8.420018000  0.000000000  8.077981000     0.059382296 -0.000000000  0.061896655
     0.000000000 11.763808000  0.000000000     0.000000000  0.085006488 -0.000000000
    -8.420018000  0.000000000  8.077981000    -0.059382296  0.000000000  0.061896655

  length of vectors
    11.668353789 11.763808000 11.668353789     0.085775596  0.085006488  0.085775596

 FORCES acting on ions
    electron-ion (+dipol)            ewald-force                    non-local-force                 convergence-correction
   0.351E+02 0.990E+01 -.137E+02   -.350E+02 -.102E+02 0.138E+02   -.102E+00 0.215E+00 -.921E-01   0.539E-04 0.121E-03 -.174E-04
   0.267E+02 0.117E+02 -.111E+02   -.265E+02 -.119E+02 0.110E+02   -.199E+00 0.159E+00 0.538E-01   -.271E-04 0.119E-03 -.472E-04
   -.238E+02 -.557E+01 -.133E+02   0.237E+02 0.571E+01 0.134E+02   0.890E-01 -.109E+00 -.892E-01   -.648E-04 -.784E-04 -.309E-04
   0.237E+02 0.563E+01 0.136E+02   -.236E+02 -.578E+01 -.136E+02   -.889E-01 0.109E+00 0.896E-01   0.424E-04 0.908E-04 0.749E-04
   -.268E+02 -.118E+02 0.112E+02   0.266E+02 0.120E+02 -.112E+02   0.199E+00 -.158E+00 -.588E-01   0.234E-04 -.126E-03 0.408E-04
   -.350E+02 -.994E+01 0.137E+02   0.349E+02 0.102E+02 -.138E+02   0.103E+00 -.214E+00 0.927E-01   -.414E-04 -.123E-03 0.232E-04
   0.905E+02 -.226E+02 0.155E+01   -.898E+02 0.229E+02 -.146E+01   -.791E+00 -.280E+00 -.591E-01   -.510E-03 0.108E-03 0.577E-04
   -.904E+02 0.227E+02 -.145E+01   0.897E+02 -.230E+02 0.134E+01   0.799E+00 0.263E+00 0.675E-01   0.514E-03 -.947E-04 -.620E-04
   0.426E+01 0.707E+01 -.978E+02   -.435E+01 -.705E+01 0.979E+02   0.900E-01 -.319E-01 -.168E-01   -.615E-04 -.282E-04 0.584E-03
   -.431E+01 -.692E+01 0.974E+02   0.439E+01 0.690E+01 -.975E+02   -.911E-01 0.283E-01 -.371E-02   0.537E-04 0.395E-04 -.580E-03
   0.126E+02 -.131E+02 -.306E+02   -.131E+02 0.132E+02 0.315E+02   0.345E+00 -.113E+00 -.128E+01   -.700E-04 0.171E-04 0.637E-03
   -.126E+02 0.125E+02 0.306E+02   0.131E+02 -.126E+02 -.314E+02   -.361E+00 0.111E+00 0.126E+01   0.754E-04 -.409E-04 -.533E-03
   0.330E+02 0.198E+02 -.619E+01   -.332E+02 -.199E+02 0.635E+01   0.619E+00 0.264E-01 -.125E+00   -.593E-03 -.977E-04 0.413E-04
   -.331E+02 -.204E+02 0.600E+01   0.333E+02 0.205E+02 -.614E+01   -.639E+00 -.322E-01 0.111E+00   0.535E-03 0.696E-04 -.757E-04
   0.125E+02 -.127E+02 0.782E+01   -.126E+02 0.128E+02 -.817E+01   0.269E-01 -.156E+00 0.328E+00   -.452E-04 -.677E-04 0.301E-03
   0.172E+02 -.207E+02 0.874E+02   -.174E+02 0.208E+02 -.878E+02   0.126E+00 -.156E+00 0.287E+00   -.461E-04 -.586E-04 -.391E-03
   0.392E+02 0.155E+02 0.240E+02   -.392E+02 -.156E+02 -.242E+02   -.965E-01 0.157E+00 0.189E+00   -.403E-03 0.824E-04 0.858E-04
   -.272E+02 0.123E+02 0.398E+02   0.272E+02 -.124E+02 -.401E+02   0.423E-01 0.129E+00 0.328E+00   0.289E-03 0.715E-04 0.764E-04
   0.274E+02 -.122E+02 -.399E+02   -.273E+02 0.122E+02 0.403E+02   -.436E-01 -.127E+00 -.330E+00   -.277E-03 -.708E-04 -.804E-04
   -.395E+02 -.153E+02 -.240E+02   0.394E+02 0.154E+02 0.242E+02   0.952E-01 -.155E+00 -.190E+00   0.389E-03 -.713E-04 -.935E-04
   -.173E+02 0.208E+02 -.871E+02   0.174E+02 -.209E+02 0.875E+02   -.125E+00 0.157E+00 -.282E+00   0.484E-04 0.845E-04 0.413E-03
   -.125E+02 0.128E+02 -.801E+01   0.125E+02 -.128E+02 0.836E+01   -.295E-01 0.156E+00 -.329E+00   0.403E-04 0.606E-04 -.303E-03
   -.128E+02 0.168E+02 0.211E+02   0.131E+02 -.170E+02 -.214E+02   -.198E+00 0.219E+00 0.324E+00   -.626E-04 0.383E-04 0.637E-04
   0.101E+02 0.403E+02 -.804E+01   -.112E+02 -.409E+02 0.905E+01   -.269E+01 -.463E+00 0.252E+01   0.259E-03 -.515E-05 -.260E-03
   0.152E+02 -.386E+02 0.215E+02   -.155E+02 0.388E+02 -.219E+02   0.222E+00 -.213E+00 0.295E+00   0.256E-03 0.300E-04 0.253E-03
   0.243E+02 -.205E+02 0.268E+02   -.245E+02 0.207E+02 -.271E+02   0.220E+00 -.288E+00 0.188E+00   -.409E-04 -.353E-04 -.478E-04
   -.273E+02 -.132E+02 -.306E+02   0.275E+02 0.134E+02 0.308E+02   -.179E+00 -.120E+00 -.185E+00   0.392E-05 0.153E-04 0.225E-04
   0.154E+02 -.311E+02 0.965E+01   -.152E+02 0.313E+02 -.939E+01   -.140E+00 -.230E+00 -.211E+00   -.297E-03 0.704E-04 -.316E-03
   0.712E+02 0.191E+02 -.664E+02   -.716E+02 -.195E+02 0.667E+02   0.428E+00 0.327E+00 -.352E+00   -.290E-03 0.630E-05 0.270E-03
   0.846E+01 0.128E+02 -.184E+02   -.857E+01 -.129E+02 0.187E+02   0.933E-01 0.120E+00 -.211E+00   0.755E-04 0.861E-05 -.701E-04
   -.840E+01 -.128E+02 0.186E+02   0.851E+01 0.129E+02 -.188E+02   -.943E-01 -.121E+00 0.211E+00   -.734E-04 -.607E-05 0.715E-04
   -.711E+02 -.190E+02 0.662E+02   0.716E+02 0.194E+02 -.666E+02   -.427E+00 -.324E+00 0.353E+00   0.287E-03 0.378E-05 -.271E-03
   -.153E+02 0.312E+02 -.967E+01   0.151E+02 -.314E+02 0.940E+01   0.139E+00 0.227E+00 0.213E+00   0.300E-03 -.658E-04 0.316E-03
   0.271E+02 0.133E+02 0.307E+02   -.273E+02 -.135E+02 -.309E+02   0.180E+00 0.122E+00 0.187E+00   -.175E-05 -.945E-05 -.174E-04
   -.986E+01 -.404E+02 0.793E+01   0.109E+02 0.410E+02 -.893E+01   0.268E+01 0.485E+00 -.251E+01   -.336E-03 -.976E-04 0.300E-03
   0.130E+02 -.169E+02 -.209E+02   -.132E+02 0.171E+02 0.212E+02   0.201E+00 -.217E+00 -.323E+00   0.669E-04 -.418E-04 -.579E-04
   -.245E+02 0.204E+02 -.267E+02   0.247E+02 -.206E+02 0.269E+02   -.220E+00 0.284E+00 -.189E+00   0.346E-04 0.297E-04 0.601E-04
   -.151E+02 0.383E+02 -.217E+02   0.153E+02 -.386E+02 0.220E+02   -.224E+00 0.215E+00 -.295E+00   -.230E-03 -.499E-04 -.265E-03
   -.177E+00 0.630E+00 -.769E-01   0.186E+00 -.650E+00 0.608E-01   0.449E-02 -.715E-02 -.789E-02   0.831E-04 -.168E-03 -.186E-03
   0.286E-01 0.123E-01 0.390E-01   0.174E-12 0.124E-13 0.462E-13   -.312E-01 -.451E-02 -.410E-01   -.392E-04 -.271E-03 -.145E-04

 POSITION                                       TOTAL-FORCE (eV/Angst)
      0.57783      2.93285      3.81525         0.017373     -0.085851     -0.017114
      0.43201      2.92479     12.06738        -0.000422     -0.057325      0.012126
     -4.69579      8.87416      7.86108        -0.006884      0.040305     -0.016112
     -3.72310      2.89185      8.29539         0.006448     -0.040264      0.016193
     -0.43442      8.83789     12.16943         0.001643      0.058561     -0.016166
     -0.57846      8.83108      4.26376        -0.017469      0.085936      0.016720
      8.35569     11.74032      8.09910        -0.151315      0.053013      0.010310
      0.06496      0.02368      8.05721         0.149305     -0.052540     -0.012067
      4.23178     11.73634      4.06948         0.012166     -0.019587      0.146878
      4.18769      0.02850     12.08580        -0.012555      0.017573     -0.144797
     -4.18614      5.90490     12.09727        -0.097107     -0.051294     -0.451635
      4.18531      5.86040     12.13595         0.098181      0.052475      0.452571
     -0.02088      5.89257      0.02146         0.438555     -0.073342      0.040018
      0.02119      5.87293      8.05653        -0.437867      0.072179     -0.038921
     -4.07034      8.81447     11.42383         0.007530     -0.092221     -0.004538
      4.20419      8.82349     11.65401         0.005230     -0.137536     -0.032621
      0.04780      2.93911     15.71103        -0.013295      0.118386      0.012575
     -0.17349      2.94683      7.41859        -0.000152      0.102499     -0.003066
      0.17493      8.81836      0.66122         0.000143     -0.102010      0.002578
     -0.04641      8.82606      8.52393         0.013091     -0.118541     -0.011844
      4.21578      2.94130      4.49868        -0.004310      0.138746      0.033682
     -4.34991      2.95069      4.73332        -0.009101      0.091518      0.003466
     -5.89670      5.47481      9.67089         0.007398      0.014567      0.025503
      2.31412      5.39768      9.86815        -3.749926     -1.032837      3.498807
      1.65785      6.23183      5.56802         0.004150     -0.032378     -0.000392
      1.74944      6.37385     13.79844         0.015521     -0.027613     -0.008541
     -1.70493      0.40620     10.48707         0.001233      0.013918     -0.007241
     -1.65064      0.35337      2.51739         0.040841     -0.035935      0.035901
      5.99535     11.16638      6.40963         0.049482     -0.046225     -0.027638
     -2.51402     11.39875      6.45788        -0.015237      0.004804      0.016162
     -5.90551      0.36671      9.69775         0.014343     -0.005192     -0.017192
      2.42459      0.59637      9.74600        -0.047734      0.048322      0.028528
      1.64986     11.41252      5.55960        -0.042096      0.034065     -0.034287
      1.70307     11.35649     13.74565         0.000573     -0.013530      0.007284
      6.10733      6.36075      6.28752         3.736537      1.053850     -3.477430
     -2.52311      6.29003      6.48563        -0.006140     -0.015186     -0.025996
     -1.74967      5.39381     10.43552        -0.013858      0.025011      0.007885
     -1.65758      5.53144      2.50980        -0.006897      0.033384      0.000723
      4.20973      5.87403      8.07641         0.012623     -0.019704     -0.020311
    total drift:                               -0.002638      0.007567     -0.001966

  FREE ENERGIE OF THE ION-ELECTRON SYSTEM (eV)
  free  energy   TOTEN  =     -1383.70751934 eV

  energy  without entropy=    -1383.70751934  energy(sigma->0) =    -1383.70751934

 stress matrix after NEB project (eV)
     21.06421      3.78050    -13.33887
      3.78032      4.05714     -3.91758
    -13.33889     -3.91777     20.23875
  FORCES: max atom, RMS     5.231668    1.194243
  FORCE total and by dimension    7.458045    3.749926
  Stress total and by dimension   35.845488   21.064207

 total charge

# of ion       s       p       d       tot
    1        1.786   4.721   0.020   6.528
    2        1.786   4.721   0.020   6.527
    3        1.787   4.721   0.021   6.530
    4        1.787   4.721   0.021   6.530
    5        1.786   4.721   0.020   6.527
    6        1.786   4.721   0.020   6.528
    7        1.554   0.418   9.833  11.806
    8        1.554   0.419   9.833  11.806
    9        1.554   0.417   9.833  11.805
   10        1.554   0.417   9.833  11.804
   11        1.553   0.430   9.834  11.817
   12        1.553   0.430   9.834  11.817
   13        1.554   0.428   9.834  11.816
   14        1.554   0.428   9.834  11.816
   15        1.614   3.290   0.006   4.910
   16        1.615   3.282   0.006   4.903
   17        1.614   3.284   0.006   4.904
   18        1.614   3.290   0.006   4.911
   19        1.614   3.290   0.006   4.911
   20        1.614   3.284   0.006   4.904
   21        1.615   3.282   0.006   4.903
   22        1.614   3.290   0.006   4.910
   23        1.614   3.287   0.006   4.908
   24        1.630   3.351   0.021   5.001
   25        1.615   3.291   0.006   4.913
   26        1.615   3.288   0.006   4.909
   27        1.614   3.290   0.006   4.910
   28        1.614   3.286   0.006   4.907
   29        1.615   3.276   0.006   4.897
   30        1.614   3.291   0.006   4.910
   31        1.614   3.291   0.006   4.910
   32        1.615   3.276   0.006   4.897
   33        1.614   3.286   0.006   4.907
   34        1.614   3.290   0.006   4.910
   35        1.630   3.351   0.021   5.001
   36        1.614   3.287   0.006   4.908
   37        1.615   3.288   0.006   4.909
   38        1.615   3.291   0.006   4.913
   39        1.827   4.757   0.132   6.716
tot         63.753 115.482  79.100 258.335