 vasp.5.4.4.18Apr17-6-g9f103f2a35 (build Jun 22 2020 09:27:21) complex

 INCAR:
 POTCAR:    PAW_PBE Cs_sv 08Apr2002
 POTCAR:    PAW_PBE Pb_d 06Sep2000
 POTCAR:    PAW_PBE Br 06Sep2000
 POTCAR:    PAW_PBE Cs_sv 08Apr2002
   VRHFIN =Cs: 5s5p6s

   TITEL  = PAW_PBE Cs_sv 08Apr2002
   POMASS =  132.900; ZVAL   =    9.000    mass and valenz
   ENMAX  =  220.318; ENMIN  =  165.238 eV

 POTCAR:    PAW_PBE Pb_d 06Sep2000
   VRHFIN =Pb:

   TITEL  = PAW_PBE Pb_d 06Sep2000
   POMASS =  207.200; ZVAL   =   14.000    mass and valenz
   ENMAX  =  237.835; ENMIN  =  178.376 eV

 POTCAR:    PAW_PBE Br 06Sep2000
   VRHFIN =Br: s2p5

   TITEL  = PAW_PBE Br 06Sep2000
   POMASS =   79.904; ZVAL   =    7.000    mass and valenz
   ENMAX  =  216.285; ENMIN  =  162.214 eV

 Optimization of the real space projectors (new method)

 maximal supplied QI-value         = 15.12
 optimisation between [QCUT,QGAM] = [  8.77, 17.69] = [ 21.53, 87.61] Ry
 Optimized for a Real-space Cutoff    1.85 Angstroem

   l    n(q)    QCUT    max X(q) W(low)/X(q) W(high)/X(q)  e(spline)
   0     10     8.768    25.322    0.81E-04    0.51E-04    0.48E-06
   0     10     8.768    99.187    0.78E-04    0.50E-04    0.47E-06
   1      9     8.768    11.761    0.21E-03    0.20E-03    0.37E-06
   1      9     8.768     8.275    0.24E-03    0.22E-03    0.41E-06
   2      9     8.768     3.829    0.23E-04    0.15E-03    0.18E-06
 Optimization of the real space projectors (new method)

[...]

   l    n(q)    QCUT    max X(q) W(low)/X(q) W(high)/X(q)  e(spline)
   2      7     8.768     3.846    0.48E-04    0.11E-03    0.11E-06
   2      7     8.768     8.593    0.20E-03    0.22E-04    0.24E-06
   0      8     8.768    20.082    0.68E-04    0.88E-04    0.41E-07
   0      8     8.768     8.597    0.89E-04    0.13E-03    0.59E-07
   1      8     8.768    33.223    0.15E-03    0.53E-04    0.87E-07
   1      8     8.768    15.899    0.14E-03    0.44E-04    0.78E-07
 Optimization of the real space projectors (new method)

 maximal supplied QI-value         = 17.95
 optimisation between [QCUT,QGAM] = [  8.80, 17.59] = [ 21.67, 86.68] Ry
 Optimized for a Real-space Cutoff    1.59 Angstroem

   l    n(q)    QCUT    max X(q) W(low)/X(q) W(high)/X(q)  e(spline)
   0      8     8.797   175.082    0.82E-04    0.14E-03    0.89E-07
   0      8     8.797   174.004    0.79E-04    0.14E-03    0.86E-07
   1      8     8.797    54.315    0.16E-03    0.14E-04    0.30E-06
   1      8     8.797    42.441    0.16E-03    0.14E-04    0.30E-06
   2      7     8.797     3.596    0.92E-04    0.15E-03    0.85E-07
  PAW_PBE Cs_sv 08Apr2002               :
  PAW_PBE Pb_d 06Sep2000                :
  PAW_PBE Br 06Sep2000                  :

 POSCAR: Cs4 Pb4 Br12
  positions in direct lattice
  velocities in cartesian coordinates

 METAGGA = SCAN     LMAXTAU =  6    LMIXTAU =  F

 VTST: version 3.2, (02/03/18)

 CHAIN: initializing optimizer

 OPT: Using VASP Conjugate-Gradient optimizer
 CHAIN: Read ICHAIN            0

 POSCAR: Cs4 Pb4 Br12
  positions in direct lattice
  velocities in cartesian coordinates

 ion  position               nearest neighbor table
   1  0.562  0.018  0.750-
   2  0.438  0.982  0.250-
   3  0.062  0.482  0.750-
   4  0.938  0.518  0.250-
   5  0.000  0.000  0.000-  13 2.99  14 2.99   9 3.00  11 3.00  17 3.01  19 3.01
   6  0.000  0.000  0.500-  13 2.99  14 2.99  10 3.00  12 3.00  18 3.01  20 3.01
   7  0.500  0.500  0.000-  15 2.99  16 2.99  17 3.00  19 3.00   9 3.01  11 3.01
   8  0.500  0.500  0.500-  15 2.99  16 2.99  18 3.00  20 3.00  10 3.01  12 3.01
   9  0.797  0.300  0.964-   5 3.00   7 3.01
  10  0.797  0.300  0.536-   6 3.00   8 3.01
  11  0.203  0.700  0.036-   5 3.00   7 3.01
  12  0.203  0.700  0.464-   6 3.00   8 3.01
  13  0.994  0.930  0.750-   5 2.99   6 2.99
  14  0.006  0.070  0.250-   5 2.99   6 2.99
  15  0.494  0.570  0.750-   7 2.99   8 2.99
  16  0.506  0.430  0.250-   7 2.99   8 2.99
  17  0.703  0.800  0.036-   7 3.00   5 3.01
  18  0.703  0.800  0.464-   8 3.00   6 3.01
  19  0.297  0.200  0.964-   7 3.00   5 3.01
  20  0.297  0.200  0.536-   8 3.00   6 3.01

  LATTYP: Found a simple monoclinic cell.
 ALAT       =    11.6794722747
 B/A-ratio  =     1.0055105555
 C/A-ratio  =     1.5972344771
 COS(beta)  =    -0.9498502726

  Lattice vectors:

 A1 = (  11.6777215117,   0.2022199512,  -0.0000000000)
 A2 = (  -0.0000000000,   0.0000000000,  11.7438326550)
 A3 = ( -17.6156622703,  -6.1393881915,   0.0000000000)

Analysis of symmetry for initial positions (statically):
 Subroutine PRICEL returns:
 Original cell was already a primitive cell.

 Routine SETGRP: Setting up the symmetry group for a
 simple monoclinic supercell.

 Subroutine GETGRP returns: Found  4 space group operations
 (whereof  2 operations were pure point group operations)
 out of a pool of  4 trial point group operations.

The static configuration has the point symmetry S_2 .
 The point group associated with its full space group is C_2h.

Analysis of symmetry for dynamics (positions and initial velocities):
 Subroutine PRICEL returns:
 Original cell was already a primitive cell.

 Routine SETGRP: Setting up the symmetry group for a
 simple monoclinic supercell.

 Subroutine GETGRP returns: Found  4 space group operations
 (whereof  2 operations were pure point group operations)
 out of a pool of  4 trial point group operations.

The dynamic configuration has the point symmetry S_2 .
 The point group associated with its full space group is C_2h.

 Subroutine INISYM returns: Found  4 space group operations
 (whereof  2 operations are pure point group operations),
 and found     1 'primitive' translations

 KPOINTS: 1x1x1

Automatic generation of k-mesh.
Space group operators:
 irot       det(A)        alpha          n_x          n_y          n_z        tau_x        tau_y        tau_z
    1     1.000000     0.000000     1.000000     0.000000     0.000000    -0.000000     0.000000     0.000000
    2    -1.000000     0.000000     1.000000     0.000000     0.000000    -0.000000     0.000000     0.000000
    3     1.000000   180.000000     0.000000     0.000000     1.000000    -0.000000     0.000000    -0.500000
    4    -1.000000   180.000000     0.000000     0.000000     1.000000    -0.000000     0.000000    -0.500000

 Subroutine IBZKPT returns following result:

 Found     10 irreducible k-points:

 Following reciprocal coordinates:
            Coordinates               Weight
  0.000000  0.000000  0.000000      1.000000
  0.333333  0.000000  0.000000      2.000000
  0.000000  0.333333  0.000000      2.000000
  0.333333  0.333333  0.000000      2.000000
 -0.333333  0.333333  0.000000      2.000000
  0.000000  0.000000  0.500000      1.000000
  0.333333  0.000000  0.500000      2.000000
  0.000000  0.333333  0.500000      2.000000
  0.333333  0.333333  0.500000      2.000000
 -0.333333  0.333333  0.500000      2.000000

 Following cartesian coordinates:
            Coordinates               Weight
 -0.000000  0.000000 -0.000000      1.000000
 -0.028058 -0.028082 -0.000000      2.000000
 -0.029047  0.029051 -0.000000      2.000000
 -0.057106  0.000969 -0.000000      2.000000
 -0.000989  0.057133 -0.000000      2.000000
 -0.000000  0.000000 -0.042576      1.000000
 -0.028058 -0.028082 -0.042576      2.000000
 -0.029047  0.029051 -0.042576      2.000000
 -0.057106  0.000969 -0.042576      2.000000
 -0.000989  0.057133 -0.042576      2.000000

 SYSTEM =  CsPbBr3 cubic bulk
 POSCAR =  Cs4 Pb4 Br12

 Startparameter for this run:
   NWRITE =      2    write-flag & timer
   PREC   = accura    normal or accurate (medium, high low for compatibility)
   ISTART =      0    job   : 0-new  1-cont  2-samecut
   ICHARG =      2    charge: 1-file 2-atom 10-const
   ISPIN  =      1    spin polarized calculation?
   LNONCOLLINEAR =      F non collinear calculations
   LSORBIT =      F    spin-orbit coupling
   INIWAV =      1    electr: 0-lowe 1-rand  2-diag
   LASPH  =      T    aspherical Exc in radial PAW
   METAGGA=      F    non-selfconsistent MetaGGA calc.

 Electronic Relaxation 1
   ENCUT  =  300.0 eV  22.05 Ry    4.70 a.u.  11.86 11.46 16.59*2*pi/ulx,y,z
   ENINI  =  300.0     initial cutoff
   ENAUG  =  503.9 eV  augmentation charge cutoff
   NELM   =    200;   NELMIN=  2; NELMDL=  0     # of ELM steps
   EDIFF  = 0.1E-05   stopping-criterion for ELM
   LREAL  =      T    real-space projection
   NLSPLINE    = F    spline interpolate recip. space projectors
   LCOMPAT=      F    compatible to vasp.4.4
   GGA_COMPAT  = T    GGA compatible to vasp.4.4-vasp.4.6
   LMAXPAW     = -100 max onsite density
   LMAXMIX     =    2 max onsite mixed and CHGCAR
   VOSKOWN=      0    Vosko Wilk Nusair interpolation
   ROPT   =   -0.00025  -0.00025  -0.00025
 Ionic relaxation
   EDIFFG = -.1E-01   stopping-criterion for IOM
   NSW    =      0    number of steps for IOM
   NBLOCK =      1;   KBLOCK =      1    inner block; outer block
   IBRION =     -1    ionic relax: 0-MD 1-quasi-New 2-CG
   NFREE  =      1    steps in history (QN), initial steepest desc. (CG)
   ISIF   =      3    stress and relaxation
   IWAVPR =     10    prediction:  0-non 1-charg 2-wave 3-comb
   ISYM   =      2    0-nonsym 1-usesym 2-fastsym
   LCORR  =      T    Harris-Foulkes like correction to forces

   POTIM  = 0.5000    time-step for ionic-motion
   TEIN   =    0.0    initial temperature
   TEBEG  =    0.0;   TEEND  =   0.0 temperature during run
   SMASS  =  -3.00    Nose mass-parameter (am)
   estimated Nose-frequenzy (Omega)   =  0.10E-29 period in steps =****** mass=  -0.161E-26a.u.
   SCALEE = 1.0000    scale energy and forces
   NPACO  =    256;   APACO  = 16.0  distance and # of slots for P.C.
   PSTRESS=    0.0 pullay stress

  Mass of Ions in am
   POMASS = 132.90207.20 79.90
  Ionic Valenz
   ZVAL   =   9.00 14.00  7.00
  Atomic Wigner-Seitz radii
  virtual crystal weights
   VCA    =   1.00  1.00  1.00
   NELECT =     176.0000    total number of electrons
   NUPDOWN=      -1.0000    fix difference up-down

 DOS related values:
   EMIN   =  10.00;   EMAX   =-10.00  energy-range for DOS
   EFERMI =   0.00
   ISMEAR =     0;   SIGMA  =   0.01  broadening in eV -4-tet -1-fermi 0-gaus

 Electronic relaxation 2 (details)
   IALGO  =     38    algorithm
   LDIAG  =      T    sub-space diagonalisation (order eigenvalues)
   LSUBROT=      F    optimize rotation matrix (better conditioning)
   TURBO    =      0    0=normal 1=particle mesh
   IRESTART =      0    0=no restart 2=restart with 2 vectors
   NREBOOT  =      0    no. of reboots
   NMIN     =      0    reboot dimension
   EREF     =   0.00    reference energy to select bands
   IMIX   =      4    mixing-type and parameters
     AMIX     =   0.40;   BMIX     =  1.00
     AMIX_MAG =   1.60;   BMIX_MAG =  1.00
     AMIN     =   0.10
     WC   =   100.;   INIMIX=   1;  MIXPRE=   1;  MAXMIX= -45

 Intra band minimization:
   WEIMIN = 0.0000     energy-eigenvalue tresh-hold
   EBREAK =  0.22E-08  absolut break condition
   DEPER  =   0.30     relativ break condition

   TIME   =   0.40     timestep for ELM

  volume/ion in A,a.u.               =      40.01       269.98
  Fermi-wavevector in a.u.,A,eV,Ry     =   0.988232  1.867488 13.287494  0.976603
[...]
 total energy-change (2. order) :-0.1232608E+04  (-0.1177294E+04)
 number of electron     176.0000000 magnetization
 augmentation part      176.0000000 magnetization

[...]

 Broyden mixing:
  rms(total) = 0.70667E+00    rms(broyden)= 0.70641E+00
  rms(prec ) = 0.97626E+00
  weight for this iteration     100.00

[...]

 eigenvalues of (default mixing * dielectric matrix)
  average eigenvalue GAMMA=   1.1730
  1.1730

[...]

 eigenvalue-minimisations  :  1680
 total energy-change (2. order) :-0.6117923E-05  (-0.1136461E-06)
 number of electron     176.0000000 magnetization
 augmentation part       -2.3242636 magnetization

[...]

 Broyden mixing:
  rms(total) = 0.34506E-04    rms(broyden)= 0.33818E-04
  rms(prec ) = 0.37840E-04
  weight for this iteration     100.00

 eigenvalues of (default mixing * dielectric matrix)
  average eigenvalue GAMMA=   1.5160
  3.0095  2.7569  2.3339  1.9814  1.2121  1.2121  0.9475  1.0399  1.0399  1.0918
  1.0918  0.4755

[...]

--------------------------------------- Iteration      1(  18)  ---------------------------------------

 eigenvalue-minimisations  :  1464
 total energy-change (2. order) : 0.2533436E-06  (-0.5033070E-07)
 number of electron     176.0000000 magnetization
 augmentation part       -2.3242937 magnetization

 Free energy of the ion-electron system (eV)
  alpha Z        PSCENC =       450.93857906
  Ewald energy   TEWEN  =     -9240.11910682
  -Hartree energ DENC   =     -3660.77333946
  -exchange      EXHF   =         0.00000000
  -V(xc)+E(xc)   XCENC  =       481.56237529
  PAW double counting   =     11548.93996252   -12085.03885484
  entropy T*S    EENTRO =        -0.00000000
  eigenvalues    EBANDS =     -1500.71063909
  atomic energy  EATOM  =     13290.28009929
  Solvation  Ediel_sol  =         0.00000000
  free energy    TOTEN  =      -714.92092404 eV

  energy without entropy =     -714.92092404  energy(sigma->0) =     -714.92092404

 average (electrostatic) potential at core
  the test charge radii are     1.1312  1.1541  1.0178
  (the norm of the test charge is              1.0000)
       1 -55.2125       2 -55.2145       3 -55.2056       4 -55.2056       5-101.6196
       6-101.6196       7-101.6192       8-101.6192       9 -68.9600      10 -68.9600
      11 -68.9600      12 -68.9600      13 -68.9611      14 -68.9611      15 -68.9622
      16 -68.9622      17 -68.9600      18 -68.9600      19 -68.9600      20 -68.9600

 E-fermi :   0.5571     XC(G=0):  -8.0929     alpha+bet : -7.0745

 k-point     1 :       0.0000    0.0000    0.0000
  band No.  band energies     occupation
      1     -20.7433      2.00000
      2     -20.7418      2.00000
      3     -20.7358      2.00000
      4     -20.7345      2.00000
      5     -16.4420      2.00000
      6     -16.4327      2.00000
      7     -16.4326      2.00000
      8     -16.4160      2.00000
      9     -16.3834      2.00000
     10     -16.3511      2.00000
     11     -16.3452      2.00000
     12     -16.3450      2.00000
     13     -16.2825      2.00000
     14     -16.2820      2.00000
     15     -16.2815      2.00000
     16     -16.2809      2.00000
     17     -16.2804      2.00000
     18     -16.2802      2.00000
     19     -16.2795      2.00000
     20     -16.2792      2.00000
     21     -16.2737      2.00000
     22     -16.2733      2.00000
     23     -16.2724      2.00000
     24     -16.2720      2.00000
     25     -14.3174      2.00000
     26     -14.1348      2.00000
     27     -14.0027      2.00000
     28     -13.9971      2.00000
     29     -13.9888      2.00000
     30     -13.9785      2.00000
     31     -13.9778      2.00000
     32     -13.9701      2.00000
     33     -13.9352      2.00000
     34     -13.7200      2.00000
     35     -13.7179      2.00000
     36     -13.7133      2.00000
     37      -8.1430      2.00000
     38      -7.6415      2.00000
     39      -7.1869      2.00000
     40      -7.1732      2.00000
     41      -7.1731      2.00000
     42      -7.1710      2.00000
     43      -7.1480      2.00000
     44      -7.1477      2.00000
     45      -7.1455      2.00000
     46      -7.1398      2.00000
     47      -7.1325      2.00000
     48      -7.1282      2.00000
     49      -7.1149      2.00000
     50      -7.1071      2.00000
     51      -7.0861      2.00000
     52      -6.5049      2.00000
     53      -3.2777      2.00000
     54      -3.2479      2.00000
     55      -3.2228      2.00000
     56      -3.1403      2.00000
     57      -3.1189      2.00000
     58      -3.0624      2.00000
     59      -2.1075      2.00000
     60      -1.8917      2.00000
[...]
     98       5.9585      0.00000
     99       6.0849      0.00000
    100       6.1060      0.00000
    101       6.1588      0.00000
    102       6.2772      0.00000
    103       6.3811      0.00000
    104       6.3874      0.00000
    105       6.5593      0.00000
    106       6.5672      0.00000
    107       6.6211      0.00000
    108       6.7892      0.00000
    109       6.8551      0.00000
    110       6.8939      0.00000
    111       6.9511      0.00000
    112       7.0778      0.00000

[...]

 k-point    10 :      -0.3333    0.3333    0.5000
  band No.  band energies     occupation
      1     -20.7421      2.00000
      2     -20.7419      2.00000
      3     -20.7355      2.00000
      4     -20.7355      2.00000
      5     -16.4201      2.00000
      6     -16.4201      2.00000
      7     -16.4073      2.00000
      8     -16.4073      2.00000
      9     -16.3830      2.00000
     10     -16.3830      2.00000
     11     -16.3670      2.00000
     12     -16.3670      2.00000
     13     -16.2820      2.00000
     14     -16.2820      2.00000
     15     -16.2813      2.00000
     16     -16.2813      2.00000
     17     -16.2799      2.00000
     18     -16.2799      2.00000
     19     -16.2798      2.00000
     20     -16.2798      2.00000
     21     -16.2731      2.00000
     22     -16.2731      2.00000
     23     -16.2726      2.00000
     24     -16.2726      2.00000
     25     -14.1700      2.00000
     26     -14.1700      2.00000
     27     -14.0846      2.00000
     28     -14.0846      2.00000
     29     -13.9862      2.00000
     30     -13.9862      2.00000
     31     -13.9027      2.00000
     32     -13.9027      2.00000
     33     -13.8137      2.00000
     34     -13.8137      2.00000
     35     -13.7815      2.00000
     36     -13.7815      2.00000
     37      -7.5659      2.00000
     38      -7.5659      2.00000
     39      -7.3229      2.00000
     40      -7.3229      2.00000
     41      -7.1612      2.00000
     42      -7.1611      2.00000
     43      -7.1442      2.00000
     44      -7.1441      2.00000
     45      -7.1310      2.00000
     46      -7.1309      2.00000
     47      -7.1224      2.00000
     48      -7.1224      2.00000
     49      -7.1184      2.00000
     50      -7.1183      2.00000
     51      -7.0968      2.00000
     52      -7.0967      2.00000
     53      -3.1069      2.00000
     54      -3.1069      2.00000
     55      -2.7509      2.00000
     56      -2.7509      2.00000
     57      -2.4903      2.00000
     58      -2.4903      2.00000
     59      -2.3608      2.00000
     60      -2.3608      2.00000
[...]
     98       5.0973      0.00000
     99       5.8144      0.00000
    100       5.8144      0.00000
    101       6.3552      0.00000
    102       6.3552      0.00000
    103       6.4847      0.00000
    104       6.4847      0.00000
    105       6.6571      0.00000
    106       6.6572      0.00000
    107       6.8112      0.00000
    108       6.8112      0.00000
    109       6.8876      0.00000
    110       6.8876      0.00000
    111       7.0034      0.00000
    112       7.0034      0.00000

 soft charge-density along one line, spin component           1
         0         1         2         3         4         5         6         7         8         9
 total charge-density along one line

------------------------ aborting loop because EDIFF is reached ----------------------------------------

 total charge

# of ion       s       p       d       tot
    1        1.786   4.719   0.018   6.523
    2        1.785   4.719   0.018   6.523
    3        1.786   4.719   0.019   6.523
    4        1.786   4.719   0.019   6.523
    5        1.553   0.420   9.833  11.807
    6        1.553   0.420   9.833  11.807
    7        1.553   0.420   9.834  11.807
    8        1.553   0.420   9.834  11.807
    9        1.614   3.283   0.006   4.904
   10        1.614   3.283   0.006   4.904
   11        1.614   3.283   0.006   4.904
   12        1.614   3.283   0.006   4.904
   13        1.614   3.287   0.006   4.907
   14        1.614   3.287   0.006   4.907
   15        1.614   3.287   0.006   4.907
   16        1.614   3.287   0.006   4.907
   17        1.614   3.283   0.006   4.904
   18        1.614   3.283   0.006   4.904
   19        1.614   3.283   0.006   4.904
   20        1.614   3.283   0.006   4.904
tot         32.728  59.969  39.482 132.179

  FORCE on cell =-STRESS in cart. coord.  units (eV):
  Direction    XX          YY          ZZ          XY          YZ          ZX
  Alpha Z   450.93858   450.93858   450.93858
  Ewald   -3112.35163 -3111.70717 -3016.08672    24.28038     0.00000    -0.00000
  Hartree  1202.13990  1202.23468  1256.39989    16.61902    -0.00000    -0.00000
  E(xc)    -738.98429  -738.98528  -738.93445     0.02379    -0.00000     0.00002
  Local   -1359.63877 -1360.42816 -1509.42959   -40.90307    -0.00000     0.00000
  n-local   899.72201   899.75406   900.29270     0.11744    -0.00000     0.00001
  augment   406.25402   406.24473   406.24955     0.13129     0.00001     0.00000
  Kinetic  2251.19163  2251.27711  2250.19086    -0.18766     0.00001     0.00001
  Fock        0.00000     0.00000     0.00000     0.00000     0.00000     0.00000
  Total      -0.72855    -0.67145    -0.37918     0.08119     0.00000     0.00000
  in kB      -1.45885    -1.34450    -0.75927     0.16257     0.00000     0.00000

 VOLUME and BASIS-vectors are now :
  energy-cutoff  :      300.00
  volume of cell :      800.13
      direct lattice vectors                 reciprocal lattice vectors
    -5.937940759 -5.937168240  0.000000000    -0.084174292 -0.084245220 -0.000000000
    -5.739780753  5.734948289  0.000000000    -0.087142360  0.087153699  0.000000000
     0.000000000  0.000000000-11.743832655    -0.000000000  0.000000000 -0.085151077

  length of vectors
     8.396970118  8.113859438 11.743832655     0.119090589  0.123245926  0.085151077

 FORCES acting on ions
    electron-ion (+dipol)            ewald-force                    non-local-force                 convergence-correction
   -.272E+02 -.116E+02 -.778E-06   0.272E+02 0.115E+02 0.142E-13   0.110E-01 0.951E-01 -.753E-24   0.917E-04 -.106E-03 0.132E-10
   0.272E+02 0.116E+02 0.778E-06   -.272E+02 -.115E+02 0.213E-13   -.110E-01 -.951E-01 -.363E-23   -.917E-04 0.106E-03 -.133E-10
   -.118E+02 -.274E+02 0.371E-06   0.117E+02 0.273E+02 -.213E-13   0.985E-01 0.120E-01 0.356E-23   -.246E-04 0.455E-04 0.235E-12
   0.118E+02 0.274E+02 -.371E-06   -.117E+02 -.273E+02 -.355E-14   -.985E-01 -.120E-01 -.962E-24   0.246E-04 -.455E-04 -.303E-12
   -.655E-14 0.276E-13 0.852E-13   -.355E-14 0.777E-14 0.107E-13   0.000E+00 0.000E+00 -.164E-23   0.154E-12 -.286E-13 0.701E-12
   -.153E-13 0.196E-13 -.106E-11   0.000E+00 -.142E-13 -.142E-13   0.000E+00 0.000E+00 -.229E-23   0.105E-12 0.356E-13 -.277E-12
   0.265E-13 -.343E-11 -.767E-12   -.409E-13 0.305E-14 -.249E-13   0.000E+00 0.000E+00 -.423E-23   0.673E-13 0.262E-13 0.719E-12
   -.271E-11 -.982E-12 0.557E-11   -.142E-13 0.142E-13 0.497E-13   0.000E+00 0.000E+00 -.986E-23   0.103E-12 -.392E-13 -.274E-12
   0.311E+02 -.390E+01 -.181E+02   -.314E+02 0.394E+01 0.183E+02   0.256E+00 -.237E-01 -.165E+00   0.113E-04 0.605E-05 -.140E-04
   0.311E+02 -.390E+01 0.181E+02   -.314E+02 0.394E+01 -.183E+02   0.256E+00 -.237E-01 0.165E+00   0.113E-04 0.605E-05 0.140E-04
   -.311E+02 0.390E+01 0.181E+02   0.314E+02 -.394E+01 -.183E+02   -.256E+00 0.237E-01 0.165E+00   -.113E-04 -.605E-05 0.140E-04
   -.311E+02 0.390E+01 -.181E+02   0.314E+02 -.394E+01 0.183E+02   -.256E+00 0.237E-01 -.165E+00   -.113E-04 -.605E-05 -.140E-04
   -.188E+02 0.328E+02 -.847E-06   0.190E+02 -.331E+02 0.000E+00   -.118E+00 0.249E+00 0.298E-22   0.194E-04 -.236E-04 0.145E-11
   0.188E+02 -.328E+02 0.847E-06   -.190E+02 0.331E+02 -.355E-14   0.118E+00 -.249E+00 -.349E-22   -.194E-04 0.236E-04 -.159E-11
   0.331E+02 -.187E+02 -.371E-06   -.333E+02 0.188E+02 -.249E-13   0.243E+00 -.114E+00 -.479E-22   -.556E-04 0.223E-04 0.157E-11
   -.331E+02 0.187E+02 0.371E-06   0.333E+02 -.188E+02 0.711E-14   -.243E+00 0.114E+00 0.266E-22   0.556E-04 -.223E-04 -.172E-11
   0.400E+01 -.314E+02 0.180E+02   -.404E+01 0.317E+02 -.182E+02   0.204E-01 -.247E+00 0.168E+00   -.739E-05 0.105E-04 0.230E-04
   0.400E+01 -.314E+02 -.180E+02   -.404E+01 0.317E+02 0.182E+02   0.204E-01 -.247E+00 -.168E+00   -.739E-05 0.105E-04 -.230E-04
   -.400E+01 0.314E+02 -.180E+02   0.404E+01 -.317E+02 0.182E+02   -.204E-01 0.247E+00 -.168E+00   0.739E-05 -.105E-04 -.230E-04
   -.400E+01 0.314E+02 0.180E+02   0.404E+01 -.317E+02 -.182E+02   -.204E-01 0.247E+00 0.168E+00   0.739E-05 -.105E-04 0.230E-04
   -.934E-12 -.584E-11 -.808E-11   -.488E-13 0.142E-13 -.711E-14   0.347E-17 0.000E+00 0.278E-16   0.447E-12 -.247E-13 0.827E-12

 POSITION                                       TOTAL-FORCE (eV/Angst)
     -3.43759     -3.23525     -8.80787        -0.007675      0.002494      0.000000
     -8.24013      3.03303     -2.93596         0.007675     -0.002494      0.000000
     -3.13570      2.39639     -8.80787         0.003137     -0.007205     -0.000000
     -8.54203     -2.59861     -2.93596        -0.003137      0.007205      0.000000
      0.00000      0.00000      0.00000         0.000000      0.000000     -0.000000
      0.00000      0.00000     -5.87192         0.000000      0.000000     -0.000000
     -5.83886     -0.10111      0.00000         0.000000      0.000000     -0.000000
     -5.83886     -0.10111     -5.87192         0.000000      0.000000     -0.000000
     -6.45604     -3.01291    -11.32045        -0.005569      0.002816     -0.002742
     -6.45604     -3.01291     -6.29530        -0.005569      0.002816      0.002742
     -5.22168      2.81069     -0.42338         0.005569     -0.002816      0.002742
     -5.22168      2.81069     -5.44854         0.005569     -0.002816     -0.002742
    -11.23716     -0.56785     -8.80787         0.019862     -0.004251     -0.000000
     -0.44056      0.36563     -2.93596        -0.019862      0.004251      0.000000
     -6.20117      0.33473     -8.80787        -0.007892      0.020931      0.000000
     -5.47656     -0.53695     -2.93596         0.007892     -0.020931      0.000000
     -8.76465      0.41162     -0.42557        -0.005458      0.008500      0.004958
     -8.76465      0.41162     -5.44634        -0.005458      0.008500     -0.004958
     -2.91307     -0.61384    -11.31826         0.005458     -0.008500     -0.004958
     -2.91307     -0.61384     -6.29749         0.005458     -0.008500      0.004958
    total drift:                               -0.000000     -0.000000     -0.000000

  FREE ENERGIE OF THE ION-ELECTRON SYSTEM (eV)
  free  energy   TOTEN  =      -714.92092404 eV

  energy  without entropy=     -714.92092404  energy(sigma->0) =     -714.92092404

 stress matrix after NEB project (eV)
     -0.72855      0.08119      0.00000
      0.08119     -0.67145      0.00000
      0.00000      0.00000     -0.37918
  FORCES: max atom, RMS     0.022369    0.011773
  FORCE total and by dimension    0.052650    0.020931
  Stress total and by dimension    1.067045    0.728550

 total charge

# of ion       s       p       d       tot
    1        1.786   4.719   0.018   6.523
    2        1.785   4.719   0.018   6.523
    3        1.786   4.719   0.019   6.523
    4        1.786   4.719   0.019   6.523
    5        1.553   0.420   9.833  11.807
    6        1.553   0.420   9.833  11.807
    7        1.553   0.420   9.834  11.807
    8        1.553   0.420   9.834  11.807
    9        1.614   3.283   0.006   4.904
   10        1.614   3.283   0.006   4.904
   11        1.614   3.283   0.006   4.904
   12        1.614   3.283   0.006   4.904
   13        1.614   3.287   0.006   4.907
   14        1.614   3.287   0.006   4.907
   15        1.614   3.287   0.006   4.907
   16        1.614   3.287   0.006   4.907
   17        1.614   3.283   0.006   4.904
   18        1.614   3.283   0.006   4.904
   19        1.614   3.283   0.006   4.904
   20        1.614   3.283   0.006   4.904
tot         32.728  59.969  39.482 132.179