 vasp.5.4.4.18Apr17-6-g9f103f2a35 (build Jun 22 2020 09:36:46) gamma-only

 INCAR:
 POTCAR:    PAW_PBE Cs_sv 08Apr2002
 POTCAR:    PAW_PBE Pb_d 06Sep2000
 POTCAR:    PAW_PBE Br 06Sep2000
 POTCAR:    PAW_PBE Cs_sv 08Apr2002
 POTCAR:    PAW_PBE Pb_d 06Sep2000
 POTCAR:    PAW_PBE Br 06Sep2000
 POTCAR:    PAW_PBE Cs_sv 08Apr2002
   VRHFIN =Cs: 5s5p6s

   TITEL  = PAW_PBE Cs_sv 08Apr2002
   POMASS =  132.900; ZVAL   =    9.000    mass and valenz
   ENMAX  =  220.318; ENMIN  =  165.238 eV

   TITEL  = PAW_PBE Pb_d 06Sep2000
   POMASS =  207.200; ZVAL   =   14.000    mass and valenz
   ENMAX  =  237.835; ENMIN  =  178.376 eV

   TITEL  = PAW_PBE Br 06Sep2000
   POMASS =   79.904; ZVAL   =    7.000    mass and valenz
   ENMAX  =  216.285; ENMIN  =  162.214 eV

   TITEL  = PAW_PBE Cs_sv 08Apr2002
   POMASS =  132.900; ZVAL   =    9.000    mass and valenz
   ENMAX  =  220.318; ENMIN  =  165.238 eV

   TITEL  = PAW_PBE Pb_d 06Sep2000
   POMASS =  207.200; ZVAL   =   14.000    mass and valenz
   ENMAX  =  237.835; ENMIN  =  178.376 eV

   TITEL  = PAW_PBE Br 06Sep2000
   POMASS =   79.904; ZVAL   =    7.000    mass and valenz
   ENMAX  =  216.285; ENMIN  =  162.214 eV

 Optimization of the real space projectors (new method)

 maximal supplied QI-value         = 15.12
 optimisation between [QCUT,QGAM] = [  8.77, 17.69] = [ 21.53, 87.61] Ry
 Optimized for a Real-space Cutoff    1.85 Angstroem

   l    n(q)    QCUT    max X(q) W(low)/X(q) W(high)/X(q)  e(spline)
   0     10     8.768    25.322    0.81E-04    0.51E-04    0.48E-06
   0     10     8.768    99.187    0.78E-04    0.50E-04    0.47E-06
   1      9     8.768    11.761    0.21E-03    0.20E-03    0.37E-06
   1      9     8.768     8.275    0.24E-03    0.22E-03    0.41E-06
   2      9     8.768     3.829    0.23E-04    0.15E-03    0.18E-06
 Optimization of the real space projectors (new method)

[...]

   l    n(q)    QCUT    max X(q) W(low)/X(q) W(high)/X(q)  e(spline)
   2      7     8.768     3.846    0.48E-04    0.11E-03    0.11E-06
   2      7     8.768     8.593    0.20E-03    0.22E-04    0.24E-06
   0      8     8.768    20.082    0.68E-04    0.88E-04    0.41E-07
   0      8     8.768     8.597    0.89E-04    0.13E-03    0.59E-07
   1      8     8.768    33.223    0.15E-03    0.53E-04    0.87E-07
   1      8     8.768    15.899    0.14E-03    0.44E-04    0.78E-07
 Optimization of the real space projectors (new method)

 maximal supplied QI-value         = 17.95
 optimisation between [QCUT,QGAM] = [  8.80, 17.59] = [ 21.67, 86.68] Ry
 Optimized for a Real-space Cutoff    1.59 Angstroem

   l    n(q)    QCUT    max X(q) W(low)/X(q) W(high)/X(q)  e(spline)
   0      8     8.797   175.082    0.82E-04    0.14E-03    0.89E-07
   0      8     8.797   174.004    0.79E-04    0.14E-03    0.86E-07
   1      8     8.797    54.315    0.16E-03    0.14E-04    0.30E-06
   1      8     8.797    42.441    0.16E-03    0.14E-04    0.30E-06
   2      7     8.797     3.596    0.92E-04    0.15E-03    0.85E-07
  PAW_PBE Cs_sv 08Apr2002               :
  PAW_PBE Pb_d 06Sep2000                :
  PAW_PBE Br 06Sep2000                  :
  PAW_PBE Cs_sv 08Apr2002               :
  PAW_PBE Pb_d 06Sep2000                :
  PAW_PBE Br 06Sep2000                  :

 POSCAR: Cs63 Pb64 Br192
  positions in direct lattice
  velocities in cartesian coordinates

 METAGGA = SCAN     LMAXTAU =  6    LMIXTAU =  F

 VTST: version 3.2, (02/03/18)

 CHAIN: initializing optimizer

 OPT: Using VASP Conjugate-Gradient optimizer
 CHAIN: Read ICHAIN            0

 POSCAR: Cs63 Pb64 Br192
  positions in direct lattice
  velocities in cartesian coordinates

 ion  position               nearest neighbor table
   1  0.886  0.875  0.354-
   2  0.136  0.875  0.604-
   3  0.884  0.375  0.354-
   4  0.137  0.375  0.604-
   5  0.886  0.875  0.854-
   6  0.136  0.875  0.104-
   7  0.387  0.875  0.354-
   8  0.637  0.876  0.604-
   9  0.886  0.375  0.854-
  10  0.138  0.375  0.106-
  11  0.386  0.875  0.854-
  12  0.637  0.875  0.105-
  13  0.386  0.375  0.855-
  14  0.637  0.376  0.109-
  15  0.105  0.126  0.386-
  16  0.354  0.126  0.636-
  17  0.104  0.625  0.386-
  18  0.104  0.125  0.886-
  19  0.355  0.126  0.138-
  20  0.606  0.126  0.389-
  21  0.853  0.126  0.636-
  22  0.104  0.625  0.887-
  23  0.354  0.625  0.137-
  24  0.853  0.625  0.636-
  25  0.604  0.125  0.886-
  26  0.854  0.126  0.137-
  27  0.604  0.625  0.887-
  28  0.854  0.625  0.137-
  29  0.896  0.875  0.114-
  30  0.146  0.875  0.364-
  31  0.894  0.375  0.115-
  32  0.147  0.376  0.364-
  33  0.897  0.875  0.614-
  34  0.146  0.875  0.864-
  35  0.397  0.875  0.114-
  36  0.646  0.875  0.364-
  37  0.900  0.375  0.615-
  38  0.146  0.375  0.864-
  39  0.399  0.376  0.118-
  40  0.397  0.875  0.614-
  41  0.647  0.875  0.864-
  42  0.647  0.375  0.865-
  43  0.114  0.126  0.147-
  44  0.365  0.126  0.397-
  45  0.114  0.625  0.147-
  46  0.114  0.126  0.646-
  47  0.364  0.126  0.897-
  48  0.614  0.125  0.146-
  49  0.864  0.125  0.397-
  50  0.114  0.625  0.646-
  51  0.364  0.625  0.897-
  52  0.614  0.625  0.145-
  53  0.864  0.626  0.398-
  54  0.614  0.126  0.646-
  55  0.864  0.126  0.897-
  56  0.864  0.625  0.897-
  57  0.750  0.750  0.250- 143 2.97 310 3.01 252 3.01 203 3.01 132 3.01 225 3.02
  58  0.000  0.750  0.500- 144 2.98 133 3.00 220 3.00 241 3.00 226 3.01 200 3.01
  59  0.749  0.252  0.254- 136 2.96 207 2.97 216 2.98 141 3.04 227 3.05 250 3.07
  60  0.000  0.251  0.500- 217 2.99 239 3.00 142 3.00 137 3.00 204 3.02 228 3.03
  61  0.750  0.751  0.750- 149 2.99 315 3.00 138 3.00 229 3.01 209 3.01 223 3.01
  62  0.000  0.750  0.000- 150 2.99 139 3.00 197 3.01 224 3.01 247 3.01 230 3.01
  63  0.250  0.750  0.250- 300 2.98 231 3.00 127 3.01 248 3.01 213 3.01 198 3.01
  64  0.500  0.750  0.500- 301 2.98 314 3.00 128 3.01 232 3.01 311 3.01 208 3.02
  65  0.750  0.251  0.750- 246 2.99 298 3.00 145 3.00 221 3.01 233 3.01 210 3.01
  66  0.000  0.251  0.000- 140 3.00 146 3.00 199 3.00 222 3.00 234 3.01 243 3.01
  67  0.250  0.751  0.750- 153 2.99 130 3.00 242 3.00 236 3.01 218 3.01 201 3.01
  68  0.500  0.751  0.000- 154 2.98 131 3.00 202 3.00 237 3.01 251 3.01 219 3.01
  69  0.250  0.250  0.750- 151 2.99 240 2.99 134 3.00 312 3.00 214 3.01 205 3.02
  70  0.500  0.251  0.001- 152 2.99 206 2.99 135 3.00 238 3.00 215 3.01 249 3.01
  71  0.000  0.750  0.250- 115 2.98 225 3.00 155 3.00 241 3.01 197 3.01 213 3.01
  72  0.250  0.750  0.500- 116 2.98 198 3.01 226 3.01 311 3.01 156 3.01 242 3.01
  73  1.000  0.251  0.250- 227 2.98 113 3.00 157 3.00 239 3.01 199 3.01 211 3.03
  74  0.000  0.750  0.750- 121 2.99 158 3.00 200 3.00 229 3.01 218 3.01 247 3.01
  75  0.250  0.750  0.000- 122 2.99 219 3.00 159 3.01 201 3.01 230 3.01 248 3.01
  76  0.500  0.750  0.250- 123 2.96 310 3.00 202 3.01 314 3.01 231 3.01 160 3.02
  77  0.750  0.751  0.500- 297 2.97 161 3.00 203 3.00 232 3.01 315 3.01 220 3.01
  78  0.000  0.251  0.750- 117 2.99 162 3.00 233 3.00 204 3.00 214 3.01 243 3.01
  79  0.250  0.251  0.001- 118 3.00 215 3.00 163 3.00 205 3.00 244 3.01 234 3.01
  80  0.750  0.253  0.499- 313 2.97 207 2.99 164 2.99 120 3.02 246 3.05 217 3.05
  81  0.500  0.751  0.750- 296 2.99 165 3.00 223 3.00 208 3.01 251 3.01 236 3.01
  82  0.750  0.750  0.000- 126 2.99 252 3.00 166 3.00 237 3.01 224 3.01 209 3.01
  83  0.500  0.251  0.750- 124 2.99 308 3.00 167 3.00 221 3.00 312 3.01 249 3.01
  84  0.750  0.250  0.001- 250 2.99 168 2.99 125 3.00 238 3.00 222 3.01 210 3.03
  85  0.000  0.001  0.250- 155 2.99 113 2.99 169 3.00 183 3.00 253 3.01 267 3.01
  86  0.250  0.001  0.500- 156 2.99 114 3.00 254 3.00 268 3.01 170 3.01 184 3.01
  87  0.000  0.500  0.250- 171 2.98 157 2.99 185 3.01 115 3.01 269 3.02 255 3.03
  88  0.000  0.001  0.750- 158 2.99 117 3.00 173 3.00 270 3.01 256 3.01 187 3.01
  89  0.250  0.001  0.000- 159 2.99 118 3.00 188 3.01 257 3.01 174 3.01 271 3.01
  90  0.500  0.001  0.250- 119 2.98 160 3.00 258 3.01 189 3.01 272 3.01 175 3.02
  91  0.750  0.001  0.500- 120 2.99 161 3.00 273 3.00 176 3.01 259 3.01 190 3.01
  92  0.000  0.501  0.750- 162 2.99 121 3.00 177 3.00 191 3.01 260 3.01 274 3.01
  93  0.251  0.500  0.001- 163 2.99 261 2.99 275 3.00 122 3.01 178 3.01 192 3.02
  94  0.750  0.498  0.499- 305 2.96 164 2.98 277 2.99 297 3.03 307 3.04 262 3.05
  95  0.500  0.001  0.750- 165 2.99 124 3.00 278 3.00 263 3.01 193 3.01 180 3.01
  96  0.750  0.001  0.000- 125 2.99 166 2.99 194 3.00 181 3.01 264 3.01 279 3.01
  97  0.501  0.500  0.750- 167 2.99 318 3.00 265 3.00 296 3.01 195 3.01 304 3.01
  98  0.750  0.500  0.001- 168 2.99 196 2.99 182 3.00 126 3.01 266 3.01 280 3.03
  99  0.750  0.001  0.250- 141 2.98 132 3.01 258 3.01 273 3.01 194 3.01 169 3.02
 100  0.000  0.001  0.500- 133 2.99 142 3.00 183 3.00 259 3.00 170 3.01 270 3.01
 101  0.750  0.499  0.254- 136 2.95 277 2.97 316 2.98 143 3.04 171 3.05 196 3.06
 102  0.000  0.500  0.500- 137 2.99 262 2.99 185 3.00 144 3.01 274 3.02 172 3.04
 103  0.750  0.001  0.750- 138 2.99 145 3.00 190 3.00 263 3.01 279 3.01 173 3.01
 104  0.000  0.001  0.000- 139 3.00 146 3.00 267 3.00 264 3.01 187 3.01 174 3.01
 105  0.250  0.001  0.250- 127 2.99 147 3.00 175 3.01 268 3.01 253 3.01 188 3.01
 106  0.500  0.001  0.500- 128 3.00 148 3.00 189 3.00 176 3.01 254 3.01 278 3.01
 107  0.750  0.500  0.750- 298 2.98 307 2.99 177 3.01 265 3.01 149 3.01 280 3.02
 108  0.000  0.500  0.000- 140 2.99 269 3.00 266 3.00 150 3.01 178 3.01 191 3.01
 109  0.250  0.001  0.750- 130 2.99 151 3.00 184 3.00 180 3.01 256 3.01 271 3.01
 110  0.500  0.001  0.000- 131 2.99 152 2.99 272 3.00 181 3.01 193 3.01 257 3.01
 111  0.250  0.501  0.750- 186 2.98 134 2.99 304 3.00 153 3.01 260 3.01 275 3.02
 112  0.500  0.500  0.001- 135 2.99 276 2.99 182 3.00 154 3.00 261 3.01 195 3.02
 113  0.985  0.126  0.231-  85 2.99  73 3.00
 114  0.235  0.126  0.481-  86 3.00 291 3.00
 115  0.985  0.626  0.231-  71 2.98  87 3.01
 116  0.234  0.626  0.482-  72 2.98 293 3.02
[...]
 266  0.876  0.518  0.026- 108 3.00  98 3.01
 267  0.026  0.982  0.126- 104 3.00  85 3.01
 268  0.276  0.982  0.376-  86 3.01 105 3.01
 269  0.026  0.482  0.126- 108 3.00  87 3.02
 270  0.026  0.982  0.626-  88 3.01 100 3.01
 271  0.276  0.982  0.876- 109 3.01  89 3.01
 272  0.526  0.982  0.126- 110 3.00  90 3.01
 273  0.776  0.982  0.376-  91 3.00  99 3.01
 274  0.027  0.483  0.627-  92 3.01 102 3.02
 275  0.275  0.482  0.877-  93 3.00 111 3.02
 276  0.526  0.485  0.126- 112 2.99 292 3.04
 277  0.784  0.490  0.377- 101 2.97  94 2.99
 278  0.526  0.982  0.626-  95 3.00 106 3.01
 279  0.776  0.982  0.876- 103 3.01  96 3.01
 280  0.776  0.483  0.877- 107 3.02  98 3.03
 281  0.391  0.376  0.353-
 282  0.638  0.376  0.600-
 283  0.607  0.625  0.389-
 284  0.354  0.626  0.638-
 285  0.398  0.376  0.616-
 286  0.615  0.625  0.646-
 287  0.364  0.625  0.399-
 288  0.252  0.251  0.251- 235 2.99 147 2.99 129 3.00 244 3.01 309 3.01 211 3.02
 289  0.504  0.253  0.500- 313 2.95 299 2.99 245 2.99 308 3.02 148 3.02 212 3.07
 290  0.504  0.251  0.253- 302 2.96 216 2.96 245 3.00 119 3.03 206 3.03 235 3.05
 291  0.253  0.251  0.500- 212 2.98 309 3.00 303 3.00 114 3.00 228 3.03 240 3.03
 292  0.504  0.501  0.253- 302 2.95 316 2.97 306 3.00 123 3.04 276 3.04 179 3.04
[...]
   0.257E+02 -.817E+00 0.110E+02   -.257E+02 0.817E+00 -.110E+02   -.483E-01 0.930E-02 0.691E-01   -.408E-04 0.841E-05 -.864E-04
   0.280E+02 -.128E+01 0.126E+02   -.279E+02 0.128E+01 -.127E+02   -.794E-01 0.229E-02 0.101E+00   -.635E-04 0.574E-05 -.168E-04
   0.283E+02 -.483E+00 0.116E+02   -.283E+02 0.493E+00 -.117E+02   -.717E-01 -.609E-02 0.695E-01   -.930E-04 -.384E-04 -.976E-04
   0.283E+02 -.646E+00 0.100E+02   -.282E+02 0.654E+00 -.101E+02   -.687E-01 -.356E-02 0.433E-01   -.552E-04 -.401E-04 0.770E-04
   0.281E+02 -.200E+00 0.132E+02   -.280E+02 0.213E+00 -.133E+02   -.103E+00 -.853E-02 0.968E-01   -.534E-04 0.405E-04 0.217E-04
   0.297E+02 0.357E+00 0.240E+02   -.296E+02 -.351E+00 -.242E+02   -.592E-01 -.894E-03 0.180E+00   0.144E-04 -.620E-04 -.487E-04
   0.298E+02 0.578E+00 0.101E+02   -.297E+02 -.567E+00 -.102E+02   -.727E-01 -.701E-02 0.646E-01   0.599E-04 0.193E-04 -.746E-04
   0.274E+02 0.812E+00 0.564E+01   -.274E+02 -.806E+00 -.559E+01   -.589E-01 0.130E-02 -.613E-01   0.266E-04 0.914E-04 -.159E-04
   0.262E+02 -.907E+00 0.123E+02   -.261E+02 0.914E+00 -.123E+02   -.994E-01 -.196E-02 0.818E-01   0.139E-03 -.650E-04 0.169E-04
   0.288E+02 -.699E+00 0.114E+02   -.288E+02 0.711E+00 -.115E+02   -.755E-01 -.766E-02 0.732E-01   0.663E-04 0.533E-04 0.143E-04
   0.295E+02 0.733E+00 0.110E+02   -.294E+02 -.724E+00 -.111E+02   -.835E-01 -.535E-02 0.437E-01   -.369E-04 -.350E-04 0.322E-05
   -.270E+02 -.344E+01 0.106E+02   0.269E+02 0.347E+01 -.107E+02   0.860E-01 -.213E-01 0.672E-01   -.268E-04 -.354E-05 0.382E-04
   -.338E+02 -.738E+01 0.829E+01   0.337E+02 0.742E+01 -.832E+01   0.518E-01 -.381E-01 0.346E-01   0.417E-04 0.370E-05 0.224E-04
   -.275E+02 0.341E+01 0.106E+02   0.274E+02 -.344E+01 -.107E+02   0.101E+00 0.177E-01 0.576E-01   0.396E-04 -.134E-04 0.110E-03
   -.291E+02 -.139E+01 0.131E+02   0.290E+02 0.142E+01 -.132E+02   0.633E-01 -.286E-01 0.877E-01   -.469E-04 0.954E-04 0.227E-04
   -.280E+02 -.218E+01 0.108E+02   0.279E+02 0.221E+01 -.109E+02   0.717E-01 -.250E-01 0.499E-01   0.572E-04 0.499E-04 0.206E-04
   -.252E+02 -.914E+01 0.784E+01   0.251E+02 0.927E+01 -.780E+01   0.162E+00 -.122E+00 -.385E-01   -.298E-05 0.362E-05 0.405E-04
   -.232E+02 -.582E+01 0.167E+02   0.231E+02 0.597E+01 -.168E+02   0.104E+00 -.160E+00 0.168E+00   -.264E-04 0.540E-04 -.788E-04
   -.287E+02 0.146E+01 0.131E+02   0.287E+02 -.148E+01 -.132E+02   0.612E-01 0.186E-01 0.881E-01   0.230E-04 -.283E-04 0.234E-04
   -.280E+02 0.221E+01 0.115E+02   0.279E+02 -.223E+01 -.115E+02   0.742E-01 0.141E-01 0.446E-01   -.310E-04 -.523E-04 -.354E-04
   -.260E+02 0.846E+01 0.657E+01   0.258E+02 -.858E+01 -.655E+01   0.175E+00 0.128E+00 -.374E-01   -.205E-04 -.953E-04 0.197E-05
   -.235E+02 0.582E+01 0.175E+02   0.234E+02 -.597E+01 -.177E+02   0.866E-01 0.154E+00 0.171E+00   0.857E-04 -.568E-04 -.671E-04
   -.319E+02 -.622E+01 0.169E+02   0.318E+02 0.628E+01 -.170E+02   0.498E-01 -.493E-01 0.846E-01   -.367E-04 0.457E-04 -.389E-04
   -.261E+02 -.254E+01 0.121E+02   0.260E+02 0.258E+01 -.122E+02   0.872E-01 -.323E-01 0.818E-01   0.551E-05 -.580E-04 -.179E-05
   -.263E+02 0.269E+01 0.121E+02   0.262E+02 -.271E+01 -.122E+02   0.876E-01 0.214E-01 0.765E-01   -.182E-04 0.378E-05 0.351E-04
   0.661E+01 0.514E+01 0.386E+01   -.662E+01 -.453E+01 -.403E+01   0.163E-01 -.606E+00 0.157E+00   0.758E-05 0.306E-04 0.429E-04
   -.109E+01 0.228E+01 0.344E+01   0.107E+01 -.210E+01 -.345E+01   0.244E-01 -.189E+00 0.101E-02   0.663E-04 -.407E-04 0.186E-04
   0.725E+02 -.588E+02 0.656E+01   -.720E+02 0.584E+02 -.695E+01   -.575E+00 0.386E+00 0.386E+00   -.301E-03 0.148E-03 0.206E-04
   -.716E+00 -.634E+01 0.835E+01   0.838E+00 0.645E+01 -.802E+01   -.130E+00 -.112E+00 -.341E+00   -.749E-04 0.712E-04 0.313E-04
[...]
   0.202E+01 0.238E+01 0.145E+02   -.223E+01 -.216E+01 -.148E+02   0.207E+00 -.219E+00 0.263E+00   0.729E-04 -.108E-04 0.622E-04
   0.115E+02 -.993E+01 0.384E+02   -.116E+02 0.101E+02 -.387E+02   0.119E+00 -.178E+00 0.276E+00   -.213E-05 -.125E-03 -.663E-04
   -.324E+02 -.227E+02 -.199E+02   0.326E+02 0.228E+02 0.201E+02   -.216E+00 -.179E+00 -.211E+00   0.326E-04 0.264E-04 0.407E-04
   -.258E+02 -.233E+02 -.283E+02   0.260E+02 0.235E+02 0.285E+02   -.224E+00 -.215E+00 -.225E+00   -.305E-04 -.850E-04 -.486E-04
   0.224E+02 0.236E+02 -.274E+02   -.226E+02 -.238E+02 0.276E+02   0.203E+00 0.187E+00 -.249E+00   -.373E-05 0.356E-05 -.264E-04
   0.174E+02 0.199E+02 -.264E+02   -.176E+02 -.201E+02 0.267E+02   0.205E+00 0.177E+00 -.251E+00   0.115E-06 0.141E-04 0.209E-04
   -.243E+02 -.182E+02 0.236E+02   0.246E+02 0.184E+02 -.238E+02   -.205E+00 -.167E+00 0.208E+00   -.366E-05 -.198E-04 0.133E-04
   -.671E+02 -.649E+02 0.545E+02   0.676E+02 0.654E+02 -.549E+02   -.420E+00 -.386E+00 0.394E+00   0.117E-03 0.149E-03 -.685E-04
   0.169E+02 0.236E+02 0.244E+02   -.171E+02 -.238E+02 -.246E+02   0.187E+00 0.181E+00 0.227E+00   -.632E-04 0.411E-04 -.260E-04
   0.195E+02 0.195E+02 0.291E+02   -.197E+02 -.197E+02 -.293E+02   0.189E+00 0.162E+00 0.252E+00   -.408E-04 0.128E-03 -.466E-04
   0.324E+02 0.222E+02 -.490E+02   -.326E+02 -.219E+02 0.493E+02   0.141E+00 -.314E+00 -.224E+00   -.167E-04 -.165E-03 0.540E-04
   0.478E+01 -.134E+02 -.342E+02   -.486E+01 0.136E+02 0.345E+02   0.927E-01 -.184E+00 -.332E+00   -.982E-05 0.622E-04 0.398E-04
   -.321E+02 0.240E+02 -.196E+02   0.324E+02 -.242E+02 0.198E+02   -.222E+00 0.179E+00 -.208E+00   0.464E-05 -.659E-04 -.136E-04
   -.257E+02 0.239E+02 -.279E+02   0.259E+02 -.241E+02 0.281E+02   -.226E+00 0.211E+00 -.223E+00   0.390E-05 0.986E-04 -.873E-04
   -.276E+01 0.597E+01 -.213E+01   0.700E-12 -.193E-11 0.654E-12   0.308E+01 -.646E+01 0.109E+01   -.319E-03 0.601E-04 -.791E-03

 POSITION                                       TOTAL-FORCE (eV/Angst)
      8.96241     20.59289     20.02994         0.001510     -0.000428      0.000505
     -7.87430     20.59503     11.95540         0.001107     -0.000045      0.001376
      8.93851      8.83362     20.00367        -0.001581      0.001337     -0.000667
     -7.85487      8.82996     11.96492         0.002224      0.001468     -0.000032
      0.54102     20.59390     28.11493         0.001104      0.000340      0.000727
      0.54251     20.59303      3.88010         0.000635     -0.000278      0.000304
      0.56432     20.59641     11.96996        -0.000551     -0.001003      0.000384
      0.55152     20.60542     20.04254        -0.000032     -0.002027     -0.001069
      0.53551      8.82890     28.10618         0.001211     -0.000594      0.001335
      0.52464      8.83121      3.94623        -0.000345     -0.000808     -0.003961
     -7.87725     20.59360     20.03487         0.001888     -0.000215      0.000691
      8.94482     20.59246     11.98847        -0.000240      0.000218      0.002823
     -7.89580      8.83018     20.05119         0.000817      0.000458     -0.000324
      8.86743      8.83601     12.06536        -0.003971      0.000120      0.004758
     -4.74467      2.97020      7.92822        -0.002133     -0.001420      0.000766
     -4.74781      2.95392     15.99655        -0.002064     -0.000987      0.002119
     -4.74858     14.69821      7.92418         0.000184      0.001292      0.001404
    -13.18041      2.95199     15.99835        -0.001710     -0.000351      0.000858
      3.64621      2.95655      7.95839        -0.001233      0.000791     -0.001583
      3.65922      2.97030     16.07107         0.002668     -0.000800      0.005244
      3.65939      2.95846     24.05602         0.000019      0.000911      0.000030
    -13.17842     14.70756     16.00473        -0.001026      0.000147      0.000035
      3.65234     14.70640      7.93103         0.002239      0.001214     -0.000396
      3.65700     14.70951     24.05432        -0.000060      0.000815      0.000429
     -4.75955      2.95169     24.07470        -0.000261     -0.000275      0.000788
     12.07549      2.96403     16.00642         0.000070      0.000406     -0.000098
     -4.76160     14.71125     24.07529        -0.000126     -0.000363      0.000648
     12.07884     14.69838     16.00352        -0.000393      0.000353     -0.000071
     13.16868     20.59331     16.32843         0.001323     -0.000422     -0.000964
     -3.66709     20.59396      8.25012         0.000746     -0.001007     -0.000409
     13.11149      8.83368     16.29874        -0.004834      0.001699     -0.000813
     -3.66808      8.83564      8.25879        -0.000137      0.000761      0.000111
      4.75675     20.59549     24.40452         0.000166      0.000508      0.000026
    -12.08826     20.59296     16.33100         0.000639      0.000126     -0.001275
      4.75314     20.59441      8.25969         0.000366     -0.000729     -0.000129
      4.75820     20.59546     16.32087        -0.000306     -0.001150      0.000497
      4.80266      8.83006     24.48084        -0.002211      0.000716     -0.002223
    -12.08843      8.82925     16.32697         0.001928      0.000443     -0.001194
      4.73369      8.83509      8.36293         0.003132     -0.000426      0.001250
     -3.65992     20.59558     16.32884         0.000407     -0.000622      0.000000
     -3.66673     20.59359     24.41255         0.000963      0.000458     -0.001117
     -3.67260      8.82907     24.41703         0.002232     -0.000029      0.001172
     -0.54885      2.95923      4.22230        -0.001691     -0.001273     -0.001110
     -0.53938      2.96228     12.30754        -0.000187     -0.000856     -0.000106
     -0.54535     14.69941      4.22061        -0.001102      0.001321     -0.000960
     -8.96325      2.95418     12.28931        -0.000902      0.000387     -0.000392
     -8.97312      2.95272     20.37640         0.001273      0.000667      0.000641
      7.88716      2.95107     12.28548         0.001486      0.000736      0.000203
      7.86664      2.93739     20.38185        -0.000428      0.001215      0.000709
     -8.96335     14.70639     12.28777         0.000342     -0.000793     -0.000922
     -8.97328     14.70522     20.38023         0.000265     -0.001027      0.000103
      7.89909     14.71656     12.26790        -0.001756     -0.000376     -0.001241
      7.85342     14.72778     20.40312        -0.002031     -0.000035      0.003023
     -0.53338      2.96398     20.36291        -0.000734     -0.000096     -0.000371
     -0.55399      2.95571     28.44552        -0.001241     -0.000097     -0.001130
     -0.55141     14.70220     28.44092        -0.001035      0.000478      0.000248
      8.41824     17.63316     16.16420        -0.002226     -0.000382     -0.001966
     -8.42011     17.65796      8.08293         0.001306     -0.001944     -0.000892
      8.34918      5.92898     16.20895        -0.003761     -0.003836      0.000467
     -8.41689      5.89682      8.08264        -0.005552      0.002284     -0.002417
[...]
      2.52702     11.37356     17.77752        -0.000215     -0.004646      0.000174
      1.68818     12.25340     13.75697        -0.000909     -0.000325     -0.000657
      1.69321     12.18790     21.80720        -0.002472      0.001972      0.001722
     -1.68175      6.33920     18.64841        -0.000235     -0.000458     -0.001746
     -1.67048      6.35664     10.56848         0.000278     -0.001993     -0.002802
      5.89449     17.22271     14.57940         0.000641      0.001182     -0.001543
     -2.53626     17.24075     14.58778         0.002828      0.001279     -0.000454
     -5.91054      6.30591     17.75513         0.000813      0.000571     -0.000870
      2.53831      6.31868     17.76335        -0.004678     -0.006715      0.002264
      1.68968     17.22946     13.72081        -0.001291     -0.002869     -0.001568
      1.67419     17.27493     21.78555         0.000705     -0.002729     -0.002588
      5.99125     12.43738     14.51698        -0.002207     -0.000388     -0.003407
     -2.52528     12.23249     14.60963         0.006717     -0.004176      0.001253
     -1.67674     11.34487     18.65391        -0.001555      0.000057      0.002812
     -1.66522     11.33135     10.58379        -0.000243      0.005693      0.000093
    total drift:                                0.320413     -0.488046     -1.044227

  FREE ENERGIE OF THE ION-ELECTRON SYSTEM (eV)
  free  energy   TOTEN  =    -11395.71492360 eV

  energy  without entropy=   -11395.71492360  energy(sigma->0) =   -11395.71492360

 d Force = 0.4200706E-03[ 0.350E-03, 0.490E-03]  d Energy = 0.4224435E-03-0.237E-05
 d Force =-0.4324685E+00[-0.435E+00,-0.430E+00]  d Ewald  =-0.4324720E+00 0.347E-05

 stress matrix after NEB project (eV)
     -4.94621      0.00807      0.03361
      0.00807     -5.21436      0.03940
      0.03365      0.03942     -8.35351
  FORCES: max atom, RMS     0.009606    0.003232
  FORCE total and by dimension    0.057725    0.007905
  Stress total and by dimension   11.020035    8.353514
 Conjugate gradient step on ions:
 trial-energy change:   -0.000422  1 .order   -0.000420   -0.000490   -0.000350
  (g-gl).g = 0.252E-03      g.g   = 0.265E-03  gl.gl    = 0.267E-03
 g(Force)  = 0.265E-03   g(Stress)= 0.000E+00 ortho     = 0.182E-04
 gamma     =   0.94198
 trial     =   1.73938
 opt step  =   6.08360  (harmonic =   6.08360) maximal distance =0.00670064
 next E    =-11395.715358   (d E  =  -0.00086)

 reached required accuracy - stopping structural energy minimisation

 total charge

# of ion       s       p       d       tot
    1        1.786   4.719   0.019   6.524
    2        1.786   4.719   0.019   6.524
    3        1.786   4.719   0.019   6.524
    4        1.786   4.719   0.019   6.524
    5        1.786   4.719   0.019   6.524
    6        1.786   4.719   0.019   6.524
    7        1.786   4.719   0.019   6.524
    8        1.786   4.719   0.019   6.525
    9        1.786   4.719   0.019   6.524
   10        1.786   4.719   0.019   6.524
   11        1.786   4.719   0.019   6.524
   12        1.786   4.719   0.019   6.524
   13        1.786   4.719   0.019   6.524
   14        1.785   4.719   0.018   6.522
   15        1.786   4.719   0.019   6.524
   16        1.786   4.719   0.019   6.524
   17        1.786   4.719   0.019   6.524
   18        1.786   4.719   0.019   6.524
   19        1.786   4.719   0.019   6.524
   20        1.786   4.719   0.019   6.524
   21        1.786   4.719   0.019   6.524
   22        1.786   4.719   0.019   6.524
   23        1.786   4.719   0.019   6.524
   24        1.786   4.719   0.019   6.524
   25        1.786   4.719   0.019   6.524
   26        1.786   4.719   0.019   6.524
   27        1.786   4.719   0.019   6.524
   28        1.786   4.719   0.019   6.525
   29        1.786   4.719   0.019   6.524
   30        1.786   4.719   0.019   6.524
   31        1.786   4.719   0.019   6.523
   32        1.786   4.719   0.019   6.524
   33        1.786   4.719   0.019   6.525
   34        1.786   4.719   0.019   6.524
   35        1.786   4.719   0.019   6.524
   36        1.786   4.719   0.019   6.524
   37        1.787   4.719   0.020   6.526
   38        1.786   4.719   0.019   6.524
   39        1.786   4.719   0.019   6.523
   40        1.786   4.719   0.019   6.525
   41        1.786   4.719   0.019   6.525
   42        1.786   4.719   0.019   6.524
   43        1.786   4.719   0.019   6.524
   44        1.786   4.719   0.019   6.524
   45        1.786   4.719   0.019   6.524
   46        1.786   4.719   0.019   6.524
   47        1.786   4.719   0.019   6.524
   48        1.786   4.719   0.019   6.525
   49        1.786   4.719   0.020   6.526
   50        1.786   4.719   0.019   6.524
   51        1.786   4.719   0.019   6.524
   52        1.786   4.719   0.020   6.525
   53        1.786   4.719   0.020   6.526
   54        1.786   4.719   0.019   6.524
   55        1.786   4.719   0.019   6.524
   56        1.786   4.719   0.019   6.524
   57        1.555   0.418   9.833  11.806
   58        1.555   0.418   9.834  11.806
   59        1.554   0.412   9.833  11.799
   60        1.555   0.416   9.833  11.804
[...]
  305        1.615   3.275   0.007   4.897
  306        1.614   3.284   0.006   4.905
  307        1.614   3.285   0.006   4.905
  308        1.614   3.284   0.006   4.904
  309        1.614   3.284   0.006   4.903
  310        1.614   3.283   0.006   4.903
  311        1.614   3.284   0.006   4.904
  312        1.614   3.285   0.006   4.905
  313        1.615   3.275   0.007   4.897
  314        1.614   3.284   0.006   4.904
  315        1.614   3.285   0.006   4.905
  316        1.615   3.285   0.006   4.906
  317        1.614   3.284   0.006   4.904
  318        1.614   3.284   0.006   4.904
  319        1.614   3.284   0.006   4.904
tot        521.907 954.706 631.6912108.304