 vasp.5.4.4.18Apr17-6-g9f103f2a35 (build Jun 22 2020 09:36:46) gamma-only

 INCAR:
 POTCAR:    PAW_PBE Cs_sv 08Apr2002
 POTCAR:    PAW_PBE Pb_d 06Sep2000
 POTCAR:    PAW_PBE Br 06Sep2000
 POTCAR:    PAW_PBE Cs_sv 08Apr2002
 POTCAR:    PAW_PBE Pb_d 06Sep2000
 POTCAR:    PAW_PBE Br 06Sep2000
 POTCAR:    PAW_PBE Cs_sv 08Apr2002
   VRHFIN =Cs: 5s5p6s

   TITEL  = PAW_PBE Cs_sv 08Apr2002
   POMASS =  132.900; ZVAL   =    9.000    mass and valenz
   ENMAX  =  220.318; ENMIN  =  165.238 eV

   TITEL  = PAW_PBE Pb_d 06Sep2000
   POMASS =  207.200; ZVAL   =   14.000    mass and valenz
   ENMAX  =  237.835; ENMIN  =  178.376 eV

   TITEL  = PAW_PBE Br 06Sep2000
   POMASS =   79.904; ZVAL   =    7.000    mass and valenz
   ENMAX  =  216.285; ENMIN  =  162.214 eV

   TITEL  = PAW_PBE Cs_sv 08Apr2002
   POMASS =  132.900; ZVAL   =    9.000    mass and valenz
   ENMAX  =  220.318; ENMIN  =  165.238 eV

   TITEL  = PAW_PBE Pb_d 06Sep2000
   POMASS =  207.200; ZVAL   =   14.000    mass and valenz
   ENMAX  =  237.835; ENMIN  =  178.376 eV

   TITEL  = PAW_PBE Br 06Sep2000
   POMASS =   79.904; ZVAL   =    7.000    mass and valenz
   ENMAX  =  216.285; ENMIN  =  162.214 eV

 Optimization of the real space projectors (new method)

 maximal supplied QI-value         = 15.12
 optimisation between [QCUT,QGAM] = [  8.77, 17.69] = [ 21.53, 87.61] Ry
 Optimized for a Real-space Cutoff    1.85 Angstroem

   l    n(q)    QCUT    max X(q) W(low)/X(q) W(high)/X(q)  e(spline)
   0     10     8.768    25.322    0.81E-04    0.51E-04    0.48E-06
   0     10     8.768    99.187    0.78E-04    0.50E-04    0.47E-06
   1      9     8.768    11.761    0.21E-03    0.20E-03    0.37E-06
   1      9     8.768     8.275    0.24E-03    0.22E-03    0.41E-06
   2      9     8.768     3.829    0.23E-04    0.15E-03    0.18E-06
 Optimization of the real space projectors (new method)

[...]

   l    n(q)    QCUT    max X(q) W(low)/X(q) W(high)/X(q)  e(spline)
   2      7     8.768     3.846    0.48E-04    0.11E-03    0.11E-06
   2      7     8.768     8.593    0.20E-03    0.22E-04    0.24E-06
   0      8     8.768    20.082    0.68E-04    0.88E-04    0.41E-07
   0      8     8.768     8.597    0.89E-04    0.13E-03    0.59E-07
   1      8     8.768    33.223    0.15E-03    0.53E-04    0.87E-07
   1      8     8.768    15.899    0.14E-03    0.44E-04    0.78E-07
 Optimization of the real space projectors (new method)

 maximal supplied QI-value         = 17.95
 optimisation between [QCUT,QGAM] = [  8.80, 17.59] = [ 21.67, 86.68] Ry
 Optimized for a Real-space Cutoff    1.59 Angstroem

   l    n(q)    QCUT    max X(q) W(low)/X(q) W(high)/X(q)  e(spline)
   0      8     8.797   175.082    0.82E-04    0.14E-03    0.89E-07
   0      8     8.797   174.004    0.79E-04    0.14E-03    0.86E-07
   1      8     8.797    54.315    0.16E-03    0.14E-04    0.30E-06
   1      8     8.797    42.441    0.16E-03    0.14E-04    0.30E-06
   2      7     8.797     3.596    0.92E-04    0.15E-03    0.85E-07
  PAW_PBE Cs_sv 08Apr2002               :
  PAW_PBE Pb_d 06Sep2000                :
  PAW_PBE Br 06Sep2000                  :
  PAW_PBE Cs_sv 08Apr2002               :
  PAW_PBE Pb_d 06Sep2000                :
  PAW_PBE Br 06Sep2000                  :

 POSCAR: Cs64 Pb64 Br191
  positions in direct lattice

 METAGGA = SCAN     LMAXTAU =  6    LMIXTAU =  F

 VTST: version 3.2, (02/03/18)

 CHAIN: initializing optimizer

 OPT: Using VASP Conjugate-Gradient optimizer
 CHAIN: Read ICHAIN            0

 POSCAR: Cs64 Pb64 Br191
  positions in direct lattice

 ion  position               nearest neighbor table
   1  0.886  0.875  0.354-
   2  0.136  0.875  0.604-
   3  0.887  0.376  0.353-
   4  0.137  0.376  0.607-
   5  0.887  0.875  0.854-
   6  0.136  0.875  0.104-
   7  0.386  0.875  0.354-
   8  0.636  0.875  0.603-
   9  0.886  0.375  0.853-
  10  0.136  0.375  0.103-
  11  0.386  0.875  0.854-
  12  0.636  0.875  0.104-
  13  0.387  0.375  0.854-
  14  0.636  0.375  0.103-
  15  0.104  0.124  0.386-
  16  0.353  0.124  0.639-
  17  0.104  0.625  0.386-
  18  0.104  0.125  0.886-
  19  0.355  0.125  0.136-
  20  0.601  0.117  0.380-
  21  0.854  0.123  0.639-
  22  0.104  0.625  0.886-
  23  0.354  0.625  0.136-
  24  0.854  0.626  0.636-
  25  0.604  0.125  0.887-
  26  0.854  0.125  0.136-
  27  0.604  0.625  0.886-
  28  0.854  0.625  0.136-
  29  0.897  0.875  0.114-
  30  0.147  0.875  0.364-
  31  0.896  0.375  0.114-
  32  0.147  0.376  0.363-
  33  0.897  0.875  0.614-
  34  0.147  0.875  0.864-
  35  0.396  0.875  0.114-
  36  0.647  0.874  0.364-
  37  0.896  0.376  0.615-
  38  0.146  0.375  0.864-
  39  0.396  0.375  0.114-
  40  0.396  0.875  0.614-
  41  0.647  0.875  0.864-
  42  0.647  0.375  0.865-
  43  0.114  0.125  0.147-
  44  0.364  0.125  0.393-
  45  0.114  0.625  0.146-
  46  0.114  0.125  0.647-
  47  0.364  0.125  0.897-
  48  0.614  0.125  0.146-
  49  0.864  0.124  0.395-
  50  0.114  0.625  0.646-
  51  0.364  0.625  0.897-
  52  0.614  0.625  0.146-
  53  0.865  0.625  0.397-
  54  0.615  0.124  0.651-
  55  0.864  0.125  0.897-
  56  0.865  0.625  0.898-
  57  0.750  0.750  0.250- 132 2.99 143 3.00 252 3.00 225 3.00 311 3.01 203 3.01
  58  0.000  0.750  0.500- 144 3.00 226 3.00 200 3.01 133 3.01 241 3.01 220 3.01
  59  0.750  0.251  0.250- 250 2.98 141 2.99 227 3.00 136 3.00 216 3.02 207 3.05
  60  0.003  0.251  0.500- 228 2.95 142 2.98 137 2.98 239 2.99 204 2.99 217 3.16
  61  0.750  0.751  0.750- 149 2.99 138 3.00 229 3.00 209 3.00 223 3.01 315 3.01
  62  0.000  0.750  0.000- 150 3.00 139 3.00 230 3.00 224 3.01 197 3.01 247 3.01
  63  0.250  0.750  0.250- 301 2.99 127 3.00 248 3.00 213 3.00 231 3.01 198 3.01
  64  0.500  0.750  0.500- 302 3.00 314 3.00 312 3.00 232 3.01 208 3.01 128 3.02
  65  0.750  0.250  0.751- 145 2.98 210 2.99 299 3.00 233 3.00 221 3.01 246 3.05
  66  0.000  0.250  0.000- 146 2.99 140 3.00 234 3.01 222 3.01 243 3.01 199 3.01
  67  0.250  0.750  0.750- 153 2.99 130 3.00 218 3.00 201 3.00 236 3.01 242 3.01
  68  0.500  0.750  0.000- 154 3.00 131 3.00 219 3.01 237 3.01 251 3.01 202 3.01
  69  0.250  0.250  0.751- 151 2.99 134 2.99 205 2.99 214 3.00 313 3.02 240 3.03
  70  0.500  0.250  0.000- 152 2.99 135 2.99 215 3.00 238 3.01 249 3.02 206 3.02
  71  0.000  0.750  0.250- 115 3.00 155 3.00 197 3.00 225 3.01 213 3.01 241 3.01
  72  0.250  0.750  0.500- 116 3.00 198 3.00 242 3.00 226 3.01 156 3.01 312 3.01
  73  0.000  0.250  0.250- 113 2.99 199 2.99 157 3.00 211 3.01 227 3.01 239 3.03
  74  0.000  0.750  0.750- 121 2.99 158 3.00 247 3.00 218 3.01 200 3.01 229 3.01
  75  0.250  0.750  0.000- 122 2.99 159 3.00 230 3.01 201 3.01 248 3.01 219 3.01
  76  0.500  0.750  0.250- 160 2.99 123 3.00 202 3.00 231 3.00 311 3.01 314 3.01
  77  0.750  0.751  0.500- 203 3.00 220 3.00 315 3.00 298 3.01 232 3.01 161 3.01
  78  0.000  0.250  0.750- 117 2.99 162 2.99 243 3.00 214 3.01 233 3.01 204 3.02
  79  0.250  0.250  0.000- 118 2.99 163 3.00 234 3.01 244 3.01 205 3.01 215 3.01
  80  0.756  0.250  0.502- 217 2.80 164 2.98 246 2.98 120 2.99 207 3.00
  81  0.500  0.751  0.750- 297 2.99 251 3.00 165 3.00 236 3.00 223 3.01 208 3.01
  82  0.750  0.750  0.000- 126 2.99 166 3.00 237 3.01 209 3.01 252 3.01 224 3.01
  83  0.500  0.250  0.750- 124 2.98 249 2.99 313 3.00 167 3.00 221 3.01 309 3.05
  84  0.750  0.250  0.000- 125 2.99 168 3.00 222 3.00 210 3.01 238 3.01 250 3.02
  85  0.000  1.000  0.250- 155 2.99 267 3.00 169 3.00 113 3.00 253 3.01 183 3.01
  86  0.250  0.000  0.500- 156 2.99 184 3.00 268 3.00 170 3.01 114 3.02 254 3.02
  87  0.000  0.500  0.250- 115 2.99 157 3.00 269 3.00 255 3.01 185 3.01 171 3.01
  88  0.000  1.000  0.750- 158 2.99 187 3.00 256 3.00 117 3.00 270 3.01 173 3.01
  89  0.250  0.000  0.000- 159 2.99 118 3.00 188 3.00 174 3.01 271 3.01 257 3.01
  90  0.499  0.999  0.249- 160 2.98 175 2.99 272 2.99 258 3.01 119 3.01 189 3.02
  91  0.750  0.001  0.500- 161 2.98 190 3.00 273 3.00 176 3.01 259 3.01 120 3.05
  92  0.000  0.501  0.750- 121 2.99 191 3.00 162 3.00 177 3.00 260 3.00 274 3.01
  93  0.250  0.500  0.000- 122 2.99 163 3.00 275 3.01 178 3.01 192 3.01 261 3.01
  94  0.750  0.501  0.500- 298 2.98 262 3.00 277 3.00 306 3.01 308 3.01 164 3.04
  95  0.500  0.000  0.750- 165 2.98 193 3.00 180 3.00 263 3.01 278 3.01 124 3.02
  96  0.750  1.000  0.000- 166 2.99 125 3.00 194 3.00 264 3.01 181 3.01 279 3.01
  97  0.500  0.501  0.752- 195 2.98 297 2.99 305 3.00 167 3.00 265 3.01 318 3.01
  98  0.750  0.501  0.000- 126 2.99 168 3.00 280 3.00 266 3.00 196 3.01 182 3.01
  99  0.751  1.000  0.250- 132 2.98 258 2.99 169 3.00 194 3.00 273 3.01 141 3.01
 100  0.000  0.000  0.500- 133 2.98 270 3.00 183 3.01 170 3.01 259 3.02 142 3.02
 101  0.750  0.501  0.250- 143 2.98 196 2.99 171 3.00 136 3.00 316 3.01 277 3.03
 102  0.000  0.500  0.500- 144 2.99 172 3.00 274 3.00 185 3.01 262 3.01 137 3.02
 103  0.750  1.000  0.750- 138 2.98 279 3.00 173 3.00 263 3.01 145 3.01 190 3.02
 104  0.000  0.000  0.000- 139 2.99 146 3.00 174 3.01 264 3.01 187 3.01 267 3.01
 105  0.250  1.000  0.250- 127 2.98 253 3.00 188 3.00 147 3.01 175 3.01 268 3.01
 106  0.500  0.000  0.500- 128 2.97 278 3.00 254 3.00 176 3.01 189 3.01 148 3.06
 107  0.752  0.503  0.751- 149 2.97 177 2.99 280 2.99 299 3.01 265 3.01 308 3.03
 108  0.000  0.500  0.000- 150 3.00 140 3.00 178 3.01 266 3.01 269 3.01 191 3.01
 109  0.250  1.000  0.750- 130 2.98 271 3.00 256 3.00 180 3.01 151 3.01 184 3.02
 110  0.500  0.000  1.000- 131 2.99 257 3.00 152 3.01 181 3.01 193 3.01 272 3.01
 111  0.250  0.501  0.750- 153 2.99 134 3.00 260 3.00 275 3.00 305 3.01 186 3.01
 112  0.500  0.500  0.001- 154 2.99 135 3.00 195 3.00 261 3.00 276 3.01 182 3.01
 113  0.985  0.125  0.231-  73 2.99  85 3.00
 114  0.236  0.126  0.479- 292 2.98  86 3.02
 115  0.985  0.625  0.231-  87 2.99  71 3.00
 116  0.234  0.625  0.481- 294 2.99  72 3.00
[...]
 266  0.876  0.518  0.026-  98 3.00 108 3.01
 267  0.026  0.982  0.126-  85 3.00 104 3.01
 268  0.276  0.982  0.376-  86 3.00 105 3.01
 269  0.026  0.482  0.126-  87 3.00 108 3.01
 270  0.026  0.982  0.626- 100 3.00  88 3.01
 271  0.276  0.982  0.876- 109 3.00  89 3.01
 272  0.525  0.982  0.126-  90 2.99 110 3.01
 273  0.775  0.982  0.376-  91 3.00  99 3.01
 274  0.026  0.482  0.626- 102 3.00  92 3.01
 275  0.276  0.482  0.876- 111 3.00  93 3.01
 276  0.526  0.482  0.127- 293 2.99 112 3.01
 277  0.775  0.481  0.377-  94 3.00 101 3.03
 278  0.526  0.982  0.626- 106 3.00  95 3.01
 279  0.776  0.982  0.876- 103 3.00  96 3.01
 280  0.777  0.484  0.877- 107 2.99  98 3.00
 281  0.387  0.376  0.354-
 282  0.636  0.385  0.619-
 283  0.604  0.626  0.386-
 284  0.354  0.625  0.637-
 285  0.398  0.378  0.615-
 286  0.647  0.380  0.361-
 287  0.614  0.626  0.648-
 288  0.364  0.625  0.396-
 289  0.250  0.251  0.250- 147 2.99 129 2.99 244 2.99 211 3.00 235 3.01 310 3.03
 290  0.495  0.248  0.504- 212 2.80 148 2.97 309 2.98 300 2.99 245 3.00
 291  0.501  0.250  0.250- 206 2.99 119 2.99 303 2.99 235 3.00 216 3.02 245 3.05
 292  0.249  0.251  0.500- 228 2.96 114 2.98 304 2.98 310 3.00 240 3.00 212 3.13
 293  0.500  0.501  0.250- 123 2.98 276 2.99 179 3.00 303 3.01 307 3.01 316 3.02
 294  0.250  0.500  0.500- 116 2.99 319 3.00 186 3.00 172 3.00 317 3.01 304 3.02
[...]
   0.305E+02 0.497E+01 0.652E+01   -.303E+02 -.486E+01 -.666E+01   -.144E+00 -.928E-01 0.132E+00   -.633E-03 0.962E-03 -.576E-03
   0.269E+02 -.570E+01 0.174E+02   -.269E+02 0.567E+01 -.174E+02   -.671E-01 0.313E-01 0.390E-01   0.109E-02 -.811E-03 -.812E-03
   0.265E+02 -.146E+01 0.130E+02   -.264E+02 0.146E+01 -.131E+02   -.603E-01 0.506E-02 0.636E-01   0.132E-02 -.819E-03 0.246E-03
   0.286E+02 -.219E+01 0.999E+01   -.285E+02 0.218E+01 -.101E+02   -.777E-01 0.144E-01 0.920E-01   0.340E-03 -.157E-02 -.141E-03
   0.317E+02 -.607E+01 0.890E+01   -.316E+02 0.604E+01 -.897E+01   -.774E-01 0.197E-01 0.698E-01   -.135E-03 -.163E-02 0.387E-03
   0.260E+02 0.110E+02 0.310E+02   -.260E+02 -.109E+02 -.310E+02   -.501E-01 -.101E+00 -.471E-01   0.139E-02 0.432E-03 -.506E-03
   0.263E+02 0.244E+01 0.135E+02   -.263E+02 -.242E+01 -.136E+02   -.654E-01 -.184E-01 0.504E-01   0.126E-02 0.873E-03 0.351E-03
   0.292E+02 0.485E+01 0.388E+01   -.292E+02 -.481E+01 -.399E+01   -.779E-01 -.339E-01 0.106E+00   0.711E-03 0.146E-02 -.133E-03
   0.228E+02 -.616E+01 0.140E+02   -.228E+02 0.613E+01 -.141E+02   -.494E-01 0.327E-01 0.519E-01   0.308E-03 -.935E-03 0.416E-03
   0.263E+02 -.253E+01 0.140E+02   -.263E+02 0.253E+01 -.140E+02   -.540E-01 0.334E-02 0.604E-01   -.409E-03 -.220E-03 -.932E-03
   0.252E+02 0.312E+01 0.183E+02   -.252E+02 -.311E+01 -.183E+02   -.548E-01 -.270E-02 0.301E-01   -.195E-03 0.119E-03 -.631E-03
   -.254E+02 -.310E+01 0.104E+02   0.253E+02 0.308E+01 -.105E+02   0.567E-01 0.182E-01 0.783E-01   -.119E-02 -.633E-03 -.559E-04
   -.309E+02 -.139E+02 -.653E+01   0.309E+02 0.138E+02 0.634E+01   0.844E-01 0.128E+00 0.180E+00   -.767E-03 -.143E-02 0.267E-03
   -.263E+02 0.194E+01 0.104E+02   0.263E+02 -.192E+01 -.105E+02   0.652E-01 -.136E-01 0.756E-01   -.426E-03 0.450E-03 0.862E-03
   -.312E+02 -.339E+01 0.163E+02   0.310E+02 0.335E+01 -.163E+02   0.983E-01 0.336E-01 0.519E-01   0.194E-03 -.988E-03 -.415E-03
   -.317E+02 -.345E+01 0.114E+02   0.316E+02 0.343E+01 -.115E+02   0.995E-01 0.196E-01 0.780E-01   0.110E-02 -.123E-02 0.139E-03
   -.186E+02 -.101E+02 0.406E+01   0.185E+02 0.101E+02 -.418E+01   0.187E-01 0.510E-01 0.111E+00   0.873E-03 -.514E-03 0.142E-03
   -.110E+02 -.165E+02 0.167E+02   0.110E+02 0.163E+02 -.168E+02   0.244E-02 0.136E+00 0.848E-01   0.240E-03 -.538E-03 0.128E-03
   -.303E+02 0.218E+01 0.142E+02   0.302E+02 -.216E+01 -.143E+02   0.830E-01 -.210E-01 0.610E-01   0.499E-03 0.733E-03 -.434E-03
   -.281E+02 0.194E+01 0.117E+02   0.281E+02 -.192E+01 -.117E+02   0.853E-01 -.197E-01 0.730E-01   -.794E-04 0.106E-02 -.478E-03
   -.241E+02 0.440E+01 0.885E+01   0.241E+02 -.437E+01 -.894E+01   0.553E-01 -.263E-01 0.854E-01   -.104E-02 0.981E-03 0.240E-03
   -.227E+02 0.712E+01 0.135E+02   0.227E+02 -.708E+01 -.136E+02   0.456E-01 -.333E-01 0.681E-01   -.306E-03 0.918E-03 0.113E-03
   -.505E+02 -.248E+02 0.343E+02   0.504E+02 0.247E+02 -.344E+02   0.873E-01 0.693E-01 0.356E-01   -.954E-03 -.830E-03 -.190E-03
   -.284E+02 -.220E+01 0.156E+02   0.283E+02 0.218E+01 -.157E+02   0.858E-01 0.119E-01 0.441E-01   -.860E-03 -.974E-03 -.302E-03
   -.284E+02 0.243E+00 0.136E+02   0.283E+02 -.229E+00 -.137E+02   0.706E-01 -.723E-02 0.620E-01   -.522E-03 0.861E-03 -.571E-03
   0.682E+01 0.265E+01 -.214E+01   -.697E+01 -.267E+01 0.219E+01   0.137E+00 0.171E-01 -.561E-01   -.110E-02 0.410E-04 0.178E-03
   0.716E+00 -.131E+01 0.181E+01   -.738E+00 0.136E+01 -.184E+01   0.195E-01 -.565E-01 0.195E-01   -.211E-04 -.558E-03 0.113E-03
   0.419E+02 -.692E+00 -.165E+02   -.424E+02 0.767E+00 0.170E+02   0.526E+00 -.778E-01 -.500E+00   0.958E-03 -.437E-03 0.955E-03
   0.202E+02 -.129E+00 0.189E+02   -.218E+02 -.102E+00 -.199E+02   0.167E+01 0.225E+00 0.106E+01   0.612E-05 0.270E-03 -.128E-02
[...]
   -.189E+02 0.542E+02 0.234E+02   0.191E+02 -.544E+02 -.235E+02   -.164E+00 0.216E+00 0.179E+00   -.344E-03 0.934E-03 -.214E-03
   0.183E+02 -.473E+01 0.183E+02   -.184E+02 0.492E+01 -.185E+02   0.177E+00 -.182E+00 0.252E+00   0.661E-04 0.217E-02 0.305E-03
   0.150E+02 -.977E+01 0.340E+02   -.151E+02 0.998E+01 -.342E+02   0.186E+00 -.214E+00 0.196E+00   -.702E-04 0.115E-02 -.551E-03
   -.660E+02 -.201E+02 -.231E+02   0.662E+02 0.203E+02 0.234E+02   -.193E+00 -.203E+00 -.324E+00   -.797E-03 0.918E-03 0.221E-03
   -.280E+02 -.184E+02 -.345E+02   0.282E+02 0.186E+02 0.347E+02   -.236E+00 -.177E+00 -.193E+00   -.356E-03 0.905E-03 -.668E-03
   0.223E+02 0.194E+02 -.272E+02   -.226E+02 -.196E+02 0.274E+02   0.196E+00 0.171E+00 -.226E+00   -.761E-03 -.233E-03 0.186E-04
   0.191E+02 0.186E+02 -.257E+02   -.193E+02 -.187E+02 0.259E+02   0.207E+00 0.183E+00 -.230E+00   0.143E-03 -.235E-03 0.481E-03
   -.305E+02 -.180E+02 0.301E+02   0.307E+02 0.181E+02 -.304E+02   -.178E+00 -.187E+00 0.260E+00   0.377E-04 0.529E-03 0.892E-03
   0.200E+02 0.192E+02 0.237E+02   -.202E+02 -.194E+02 -.240E+02   0.186E+00 0.176E+00 0.233E+00   -.545E-04 -.245E-03 0.502E-03
   0.192E+02 0.184E+02 0.278E+02   -.194E+02 -.186E+02 -.280E+02   0.199E+00 0.181E+00 0.218E+00   -.212E-03 -.281E-03 -.104E-02
   0.266E+02 -.987E+01 -.302E+02   -.268E+02 0.101E+02 0.304E+02   0.186E+00 -.190E+00 -.212E+00   -.281E-03 0.158E-02 -.349E-03
   0.140E+02 -.880E+01 -.255E+02   -.142E+02 0.899E+01 0.258E+02   0.212E+00 -.183E+00 -.228E+00   -.309E-03 0.203E-02 0.251E-03
   -.294E+02 0.251E+02 -.154E+02   0.296E+02 -.252E+02 0.156E+02   -.134E+00 0.887E-01 -.179E+00   -.314E-03 0.196E-02 -.146E-03
   -.226E+02 0.237E+02 -.309E+02   0.228E+02 -.238E+02 0.311E+02   -.208E+00 0.174E+00 -.224E+00   -.128E-03 0.121E-02 -.181E-03
   0.111E+01 0.432E+01 -.119E+01   -.117E-11 -.112E-11 0.140E-11   -.122E+01 -.445E+01 0.303E+00   0.155E-02 0.369E-02 -.338E-02

 POSITION                                       TOTAL-FORCE (eV/Angst)
      8.96448     20.58587     20.03249         0.001621     -0.000630      0.000479
     -7.87480     20.58889     11.95798         0.000961     -0.000550      0.000490
      8.99928      8.84253     20.03110         0.000060     -0.000169      0.002097
     -7.91335      8.84592     12.01467         0.001280      0.000914     -0.000143
      0.54564     20.58653     28.12578         0.000311     -0.000427      0.000588
      0.54566     20.58827      3.87665         0.001604     -0.000488      0.000654
      0.53597     20.58239     11.95296         0.002012     -0.001165      0.000878
      0.54715     20.58696     20.02812         0.001231     -0.000658      0.000061
      0.54365      8.82898     28.10459         0.000712      0.000426      0.000188
      0.54599      8.82914      3.87304         0.000769      0.000716      0.001590
     -7.88202     20.58701     20.03846         0.001364     -0.000276      0.000618
      8.96166     20.59041     11.95899         0.000918     -0.001251      0.000546
     -7.86384      8.82974     20.04035         0.001487      0.000569      0.000675
      8.97919      8.82880     11.94564         0.000384      0.000814      0.000361
     -4.74581      2.91994      7.90850        -0.000635     -0.000687     -0.000179
     -4.81729      2.91621     16.02277        -0.002072     -0.001163      0.002463
     -4.75350     14.71140      7.91391        -0.000840      0.000284      0.001737
    -13.16986      2.94283     15.99899        -0.001064     -0.000892      0.000926
      3.67837      2.94084      7.93340        -0.000315     -0.000633      0.001636
      3.73989      2.75451     15.85311         0.002852     -0.000571      0.004658
      3.62251      2.89977     24.13213        -0.001070      0.001821      0.000158
    -13.17251     14.71062     16.00012        -0.001040      0.000870      0.000513
      3.66860     14.71006      7.90981        -0.002097      0.000632      0.001412
      3.67911     14.72279     24.08428         0.000011      0.000464      0.002115
     -4.75408      2.94279     24.08691        -0.000751     -0.000894      0.000298
     12.08405      2.94030     16.00096        -0.001913     -0.000431      0.000403
     -4.75025     14.70719     24.07581        -0.001167      0.000191      0.000505
     12.09312     14.71319     16.00063        -0.001737      0.000281      0.001055
     13.17683     20.58623     16.32809         0.001311     -0.000337      0.000040
     -3.66430     20.58735      8.25231         0.001805     -0.000576     -0.000782
     13.17474      8.82592     16.32243         0.001672      0.000413     -0.000422
     -3.64149      8.85292      8.23350         0.000710      0.000381      0.000335
      4.75441     20.58981     24.40655         0.001838     -0.000490     -0.000635
    -12.08708     20.58718     16.33172         0.001848     -0.000695      0.000017
      4.75498     20.58298      8.24151         0.001725     -0.000939     -0.000531
      4.76895     20.57397     16.32745         0.000780     -0.000778     -0.000208
      4.74196      8.85522     24.41182         0.002551     -0.000023     -0.001048
    -12.09090      8.82904     16.32497         0.001395      0.000279      0.000127
      4.74647      8.82167      8.24442         0.001640      0.001101     -0.000072
     -3.67336     20.58873     16.32801         0.002474     -0.000446     -0.000123
     -3.67098     20.58745     24.40940         0.001265     -0.000249     -0.000909
     -3.66915      8.83156     24.41993         0.001317      0.000603     -0.001590
     -0.54038      2.94217      4.20988        -0.001886     -0.000732     -0.000128
     -0.48064      2.93921     12.22597        -0.002571     -0.001823     -0.000474
     -0.54019     14.71002      4.20648        -0.001750      0.000472     -0.000155
     -8.97158      2.93596     12.29878        -0.001586     -0.000928     -0.000516
     -8.97138      2.94161     20.37411        -0.001236     -0.001034     -0.000751
      7.88082      2.93634     12.28586         0.000479     -0.000520      0.000491
      7.90154      2.92522     20.33258         0.002088     -0.000035     -0.005554
     -8.95829     14.71063     12.28747        -0.001720      0.000716     -0.000419
     -8.96621     14.71294     20.36933        -0.002048      0.000154     -0.001144
      7.88273     14.71264     12.28384        -0.002832      0.000698     -0.000772
      7.88314     14.71097     20.37288        -0.001753      0.000874     -0.000412
     -0.59751      2.90830     20.44584        -0.002551     -0.002467     -0.000469
     -0.54703      2.93769     28.45124        -0.001906     -0.000752     -0.000877
     -0.56132     14.71596     28.48057        -0.002316      0.000346     -0.000325
      8.42465     17.64605     16.15946        -0.001919     -0.000435      0.000588
     -8.41932     17.65594      8.08167        -0.000072      0.000202      0.000628
      8.42092      5.89630     16.15688         0.001467     -0.001505      0.000690
     -8.35965      5.90083      8.12888        -0.001595      0.000389     -0.001982
[...]
     -5.91728     11.35709     17.77965         0.000007     -0.000281     -0.002547
      2.48141     11.32122     17.78546        -0.000609      0.001613      0.000353
      1.69196     12.18939     13.71577         0.002619     -0.003272     -0.000474
      1.69749     12.25293     21.81508         0.001561     -0.001707      0.000464
     -1.61563      6.34309     18.67465         0.001140     -0.004089     -0.001519
     -1.68951      6.32414     10.55506        -0.000367     -0.002044      0.000135
      5.90542     17.22543     14.56809         0.001376      0.000630      0.000421
     -2.51539     17.22449     14.57142        -0.001323      0.001963     -0.001912
     -5.87077      6.32422     17.73500        -0.001602     -0.002110     -0.001722
      1.69147     17.22486     13.71556         0.001399      0.000439     -0.001592
      1.69716     17.22880     21.79130        -0.000727      0.000216      0.001334
      5.90024     12.18986     14.57537         0.001830     -0.001993      0.000220
     -2.51397     12.18579     14.56491         0.000465     -0.002381      0.000314
     -1.74916     11.44818     18.56421         0.001998     -0.002844     -0.000855
     -1.69212     11.33739     10.53372        -0.001398      0.000772     -0.000761
    total drift:                               -0.106718     -0.121626     -0.890300

  FREE ENERGIE OF THE ION-ELECTRON SYSTEM (eV)
  free  energy   TOTEN  =    -11418.47766400 eV

  energy  without entropy=   -11418.47766400  energy(sigma->0) =   -11418.47766400

 d Force = 0.2751128E-03[ 0.235E-03, 0.315E-03]  d Energy = 0.2830635E-03-0.795E-05
 d Force =-0.1230031E+00[-0.124E+00,-0.122E+00]  d Ewald  =-0.1230000E+00-0.310E-05

 stress matrix after NEB project (eV)
    -16.01448     -0.25185     -0.51211
     -0.25182    -16.42735      0.55480
     -0.51211      0.55478    -19.63285
  FORCES: max atom, RMS     0.009707    0.003088
  FORCE total and by dimension    0.055161    0.008619
  Stress total and by dimension   30.216500   19.632846
 Conjugate gradient step on ions:
 trial-energy change:   -0.000283  1 .order   -0.000275   -0.000315   -0.000235
  (g-gl).g = 0.241E-03      g.g   = 0.246E-03  gl.gl    = 0.168E-03
 g(Force)  = 0.246E-03   g(Stress)= 0.000E+00 ortho     = 0.820E-05
 gamma     =   1.42962
 trial     =   1.21999
 opt step  =   2.75542  (harmonic =   4.84077) maximal distance =0.00267728
 next E    =-11418.477828   (d E  =  -0.00045)

 reached required accuracy - stopping structural energy minimisation

 total charge

# of ion       s       p       d       tot
    1        1.786   4.719   0.019   6.523
    2        1.786   4.719   0.019   6.523
    3        1.786   4.719   0.019   6.524
    4        1.786   4.719   0.019   6.523
    5        1.786   4.719   0.019   6.523
    6        1.786   4.719   0.019   6.523
    7        1.786   4.719   0.019   6.523
    8        1.786   4.719   0.019   6.523
    9        1.786   4.719   0.018   6.523
   10        1.786   4.719   0.019   6.523
   11        1.786   4.719   0.019   6.523
   12        1.786   4.719   0.019   6.523
   13        1.786   4.719   0.018   6.522
   14        1.786   4.719   0.019   6.524
   15        1.786   4.719   0.019   6.523
   16        1.786   4.719   0.019   6.524
   17        1.786   4.719   0.019   6.523
   18        1.786   4.719   0.019   6.523
   19        1.786   4.719   0.018   6.522
   20        1.787   4.719   0.020   6.526
   21        1.786   4.719   0.019   6.524
   22        1.786   4.719   0.019   6.523
   23        1.786   4.719   0.019   6.523
   24        1.786   4.719   0.019   6.523
   25        1.786   4.719   0.019   6.523
   26        1.786   4.719   0.018   6.523
   27        1.786   4.719   0.019   6.523
   28        1.786   4.719   0.019   6.523
   29        1.786   4.719   0.019   6.524
   30        1.786   4.719   0.019   6.523
   31        1.786   4.719   0.019   6.523
   32        1.786   4.719   0.019   6.523
   33        1.786   4.719   0.019   6.523
   34        1.786   4.719   0.019   6.524
   35        1.786   4.719   0.019   6.524
   36        1.786   4.719   0.019   6.524
   37        1.786   4.719   0.018   6.523
   38        1.786   4.719   0.019   6.523
   39        1.786   4.719   0.019   6.523
   40        1.786   4.719   0.019   6.523
   41        1.786   4.719   0.019   6.524
   42        1.786   4.719   0.019   6.523
   43        1.786   4.719   0.019   6.523
   44        1.786   4.719   0.018   6.523
   45        1.786   4.719   0.019   6.523
   46        1.786   4.719   0.019   6.524
   47        1.786   4.719   0.019   6.524
   48        1.786   4.719   0.019   6.523
   49        1.786   4.718   0.018   6.523
   50        1.786   4.719   0.019   6.523
   51        1.786   4.719   0.019   6.524
   52        1.786   4.719   0.019   6.524
   53        1.786   4.719   0.019   6.524
   54        1.786   4.719   0.020   6.525
   55        1.786   4.719   0.019   6.523
   56        1.786   4.719   0.019   6.524
   57        1.554   0.416   9.833  11.804
   58        1.554   0.415   9.833  11.803
   59        1.554   0.415   9.833  11.802
   60        1.551   0.419   9.833  11.803
[...]
  305        1.614   3.285   0.006   4.905
  306        1.614   3.283   0.006   4.903
  307        1.614   3.284   0.006   4.904
  308        1.614   3.285   0.006   4.905
  309        1.614   3.281   0.006   4.901
  310        1.614   3.283   0.006   4.902
  311        1.614   3.284   0.006   4.904
  312        1.614   3.283   0.006   4.903
  313        1.614   3.282   0.006   4.902
  314        1.614   3.284   0.006   4.904
  315        1.614   3.284   0.006   4.903
  316        1.614   3.285   0.006   4.905
  317        1.614   3.284   0.006   4.904
  318        1.614   3.288   0.006   4.908
  319        1.614   3.284   0.006   4.903
tot        522.016 955.939 631.6812109.636