 vasp.5.4.4.18Apr17-6-g9f103f2a35 (build Jun 22 2020 09:36:46) gamma-only

 INCAR:
 POTCAR:    PAW_PBE Cs_sv 08Apr2002
 POTCAR:    PAW_PBE Pb_d 06Sep2000
 POTCAR:    PAW_PBE Br 06Sep2000
 POTCAR:    PAW_PBE Cs_sv 08Apr2002
 POTCAR:    PAW_PBE Pb_d 06Sep2000
 POTCAR:    PAW_PBE Br 06Sep2000
 POTCAR:    PAW_PBE Cs_sv 08Apr2002
   VRHFIN =Cs: 5s5p6s

   TITEL  = PAW_PBE Cs_sv 08Apr2002
   POMASS =  132.900; ZVAL   =    9.000    mass and valenz
   ENMAX  =  220.318; ENMIN  =  165.238 eV

   TITEL  = PAW_PBE Pb_d 06Sep2000
   POMASS =  207.200; ZVAL   =   14.000    mass and valenz
   ENMAX  =  237.835; ENMIN  =  178.376 eV

   TITEL  = PAW_PBE Br 06Sep2000
   POMASS =   79.904; ZVAL   =    7.000    mass and valenz
   ENMAX  =  216.285; ENMIN  =  162.214 eV

   TITEL  = PAW_PBE Cs_sv 08Apr2002
   POMASS =  132.900; ZVAL   =    9.000    mass and valenz
   ENMAX  =  220.318; ENMIN  =  165.238 eV

   TITEL  = PAW_PBE Pb_d 06Sep2000
   POMASS =  207.200; ZVAL   =   14.000    mass and valenz
   ENMAX  =  237.835; ENMIN  =  178.376 eV

   TITEL  = PAW_PBE Br 06Sep2000
   POMASS =   79.904; ZVAL   =    7.000    mass and valenz
   ENMAX  =  216.285; ENMIN  =  162.214 eV

 Optimization of the real space projectors (new method)

 maximal supplied QI-value         = 15.12
 optimisation between [QCUT,QGAM] = [  8.77, 17.69] = [ 21.53, 87.61] Ry
 Optimized for a Real-space Cutoff    1.85 Angstroem

   l    n(q)    QCUT    max X(q) W(low)/X(q) W(high)/X(q)  e(spline)
   0     10     8.768    25.322    0.81E-04    0.51E-04    0.48E-06
   0     10     8.768    99.187    0.78E-04    0.50E-04    0.47E-06
   1      9     8.768    11.761    0.21E-03    0.20E-03    0.37E-06
   1      9     8.768     8.275    0.24E-03    0.22E-03    0.41E-06
   2      9     8.768     3.829    0.23E-04    0.15E-03    0.18E-06
 Optimization of the real space projectors (new method)

[...]

   l    n(q)    QCUT    max X(q) W(low)/X(q) W(high)/X(q)  e(spline)
   2      7     8.768     3.846    0.48E-04    0.11E-03    0.11E-06
   2      7     8.768     8.593    0.20E-03    0.22E-04    0.24E-06
   0      8     8.768    20.082    0.68E-04    0.88E-04    0.41E-07
   0      8     8.768     8.597    0.89E-04    0.13E-03    0.59E-07
   1      8     8.768    33.223    0.15E-03    0.53E-04    0.87E-07
   1      8     8.768    15.899    0.14E-03    0.44E-04    0.78E-07
 Optimization of the real space projectors (new method)

 maximal supplied QI-value         = 17.95
 optimisation between [QCUT,QGAM] = [  8.80, 17.59] = [ 21.67, 86.68] Ry
 Optimized for a Real-space Cutoff    1.59 Angstroem

   l    n(q)    QCUT    max X(q) W(low)/X(q) W(high)/X(q)  e(spline)
   0      8     8.797   175.082    0.82E-04    0.14E-03    0.89E-07
   0      8     8.797   174.004    0.79E-04    0.14E-03    0.86E-07
   1      8     8.797    54.315    0.16E-03    0.14E-04    0.30E-06
   1      8     8.797    42.441    0.16E-03    0.14E-04    0.30E-06
   2      7     8.797     3.596    0.92E-04    0.15E-03    0.85E-07
  PAW_PBE Cs_sv 08Apr2002               :
  PAW_PBE Pb_d 06Sep2000                :
  PAW_PBE Br 06Sep2000                  :
  PAW_PBE Cs_sv 08Apr2002               :
  PAW_PBE Pb_d 06Sep2000                :
  PAW_PBE Br 06Sep2000                  :

 POSCAR: Cs63 Pb64 Br192
  positions in direct lattice
  velocities in cartesian coordinates

 METAGGA = SCAN     LMAXTAU =  6    LMIXTAU =  F

 VTST: version 3.2, (02/03/18)

 CHAIN: initializing optimizer

 OPT: Using VASP Conjugate-Gradient optimizer
 CHAIN: Read ICHAIN            0

 POSCAR: Cs63 Pb64 Br192
  positions in direct lattice
  velocities in cartesian coordinates

 ion  position               nearest neighbor table
   1  0.887  0.875  0.354-
   2  0.136  0.875  0.604-
   3  0.887  0.376  0.354-
   4  0.137  0.376  0.604-
   5  0.886  0.875  0.854-
   6  0.137  0.875  0.105-
   7  0.387  0.876  0.354-
   8  0.637  0.877  0.606-
   9  0.886  0.375  0.854-
  10  0.137  0.376  0.105-
  11  0.387  0.875  0.854-
  12  0.636  0.875  0.107-
  13  0.387  0.376  0.854-
  14  0.636  0.376  0.106-
  15  0.105  0.125  0.387-
  16  0.354  0.125  0.636-
  17  0.106  0.625  0.387-
  18  0.104  0.125  0.886-
  19  0.354  0.125  0.137-
  20  0.604  0.126  0.387-
  21  0.854  0.125  0.636-
  22  0.104  0.625  0.887-
  23  0.354  0.625  0.136-
  24  0.852  0.626  0.634-
  25  0.604  0.125  0.887-
  26  0.854  0.125  0.137-
  27  0.604  0.625  0.886-
  28  0.855  0.625  0.136-
  29  0.896  0.875  0.115-
  30  0.147  0.875  0.364-
  31  0.896  0.376  0.114-
  32  0.147  0.377  0.364-
  33  0.897  0.875  0.614-
  34  0.147  0.875  0.864-
  35  0.397  0.875  0.115-
  36  0.647  0.875  0.364-
  37  0.899  0.375  0.614-
  38  0.147  0.375  0.864-
  39  0.398  0.376  0.115-
  40  0.397  0.875  0.614-
  41  0.647  0.875  0.865-
  42  0.647  0.375  0.865-
  43  0.114  0.125  0.147-
  44  0.365  0.126  0.397-
  45  0.115  0.625  0.147-
  46  0.114  0.125  0.647-
  47  0.364  0.125  0.897-
  48  0.614  0.125  0.147-
  49  0.864  0.125  0.397-
  50  0.114  0.625  0.646-
  51  0.364  0.625  0.896-
  52  0.614  0.625  0.151-
  53  0.863  0.625  0.399-
  54  0.614  0.125  0.646-
  55  0.864  0.125  0.897-
  56  0.864  0.625  0.896-
  57  0.750  0.749  0.251- 310 2.96 143 2.98 203 3.01 252 3.02 132 3.02 225 3.05
  58  0.000  0.751  0.500- 220 2.99 144 2.99 241 3.00 133 3.00 226 3.01 200 3.02
  59  0.750  0.251  0.250- 136 2.99 141 3.00 216 3.01 207 3.01 250 3.01 227 3.01
  60  0.000  0.250  0.500- 142 2.99 137 2.99 239 3.00 228 3.01 217 3.01 204 3.01
  61  0.750  0.750  0.750- 315 2.97 149 2.99 138 3.00 223 3.01 229 3.01 209 3.02
  62  0.000  0.750  0.000- 150 2.99 139 3.00 197 3.00 224 3.00 247 3.01 230 3.01
  63  0.253  0.750  0.250- 231 2.98 300 2.99 198 3.00 127 3.01 248 3.02 213 3.04
  64  0.503  0.750  0.499- 301 2.96 232 2.98 314 2.98 208 3.04 128 3.04 311 3.06
  65  0.750  0.250  0.750- 145 2.99 298 2.99 246 3.00 221 3.01 210 3.01 233 3.01
  66  0.000  0.251  0.000- 146 2.99 140 3.00 199 3.01 234 3.01 243 3.01 222 3.01
  67  0.250  0.750  0.750- 153 2.99 242 3.00 236 3.00 130 3.01 218 3.01 201 3.01
  68  0.501  0.750  0.001- 154 2.99 202 2.99 237 3.01 131 3.01 219 3.01 251 3.02
  69  0.250  0.251  0.750- 151 3.00 134 3.00 240 3.00 312 3.01 214 3.01 205 3.01
  70  0.500  0.251  0.000- 135 2.99 152 2.99 206 3.00 238 3.01 249 3.01 215 3.01
  71  0.000  0.750  0.250- 115 2.99 225 2.99 241 3.01 155 3.01 197 3.01 213 3.02
  72  0.251  0.751  0.500- 311 2.98 116 2.99 198 3.00 156 3.01 242 3.02 226 3.02
  73  0.000  0.251  0.250- 113 2.99 157 3.00 227 3.00 211 3.01 239 3.01 199 3.01
  74  0.000  0.750  0.750- 121 2.99 229 3.00 200 3.00 158 3.01 218 3.01 247 3.01
  75  0.250  0.750  0.000- 122 2.99 219 3.00 248 3.01 159 3.01 201 3.01 230 3.01
  76  0.503  0.749  0.254- 310 2.95 314 2.97 123 2.98 160 3.03 202 3.06 231 3.06
  77  0.749  0.751  0.500- 297 2.95 232 2.97 203 3.00 161 3.03 315 3.03 220 3.03
  78  0.000  0.251  0.750- 117 2.99 162 3.00 233 3.00 204 3.01 214 3.01 243 3.01
  79  0.250  0.251  0.000- 118 2.99 163 3.00 215 3.00 205 3.01 234 3.01 244 3.01
  80  0.750  0.251  0.500- 164 2.98 120 3.00 207 3.00 313 3.01 217 3.01 246 3.02
  81  0.501  0.751  0.750- 296 2.99 208 2.99 223 3.00 165 3.01 236 3.01 251 3.02
  82  0.750  0.750  0.000- 126 2.99 237 3.00 209 3.00 252 3.01 166 3.01 224 3.01
  83  0.500  0.251  0.750- 124 2.99 167 3.00 308 3.00 312 3.01 221 3.01 249 3.01
  84  0.750  0.251  0.000- 125 2.99 168 3.00 238 3.00 210 3.01 250 3.01 222 3.01
  85  0.000  0.000  0.250- 155 2.99 169 3.00 113 3.00 183 3.01 253 3.01 267 3.01
  86  0.250  0.000  0.500- 156 2.98 114 3.00 254 3.00 268 3.01 170 3.01 184 3.01
  87  0.000  0.501  0.250- 171 2.99 115 3.00 157 3.00 185 3.01 269 3.02 255 3.02
  88  0.000  0.000  0.750- 158 2.99 117 3.00 173 3.00 270 3.01 256 3.01 187 3.01
  89  0.250  0.000  0.000- 159 2.99 118 3.00 257 3.01 188 3.01 271 3.01 174 3.01
  90  0.500  0.000  0.250- 160 2.97 189 3.01 119 3.01 258 3.01 175 3.01 272 3.01
  91  0.750  0.000  0.500- 161 2.97 176 3.00 273 3.01 120 3.01 190 3.02 259 3.02
  92  0.000  0.501  0.750- 177 3.00 162 3.00 121 3.00 274 3.00 191 3.01 260 3.01
  93  0.250  0.500  0.000- 163 2.99 122 3.00 261 3.00 192 3.01 275 3.01 178 3.01
  94  0.750  0.501  0.500- 297 2.96 305 2.96 277 3.00 164 3.03 307 3.03 262 3.04
  95  0.500  0.000  0.750- 165 2.99 278 3.00 124 3.00 180 3.01 263 3.01 193 3.01
  96  0.750  0.000  0.000- 166 2.99 125 3.00 181 3.00 194 3.01 279 3.01 264 3.01
  97  0.501  0.501  0.750- 296 2.99 318 2.99 167 3.00 265 3.01 304 3.01 195 3.02
  98  0.750  0.501  0.000- 168 3.00 126 3.00 280 3.00 182 3.00 196 3.01 266 3.01
  99  0.750  0.000  0.250- 132 2.98 273 3.00 258 3.01 141 3.01 194 3.01 169 3.01
 100  0.000  0.001  0.500- 133 2.98 259 3.00 183 3.00 142 3.01 170 3.01 270 3.01
 101  0.750  0.502  0.251- 316 2.96 143 2.99 136 3.01 277 3.01 196 3.01 171 3.06
 102  0.001  0.501  0.500- 262 2.98 137 2.99 144 3.00 185 3.00 274 3.02 172 3.03
 103  0.750  0.001  0.750- 138 2.98 190 3.00 145 3.00 263 3.01 279 3.01 173 3.01
 104  0.000  0.000  0.000- 139 2.99 146 3.00 267 3.01 264 3.01 187 3.01 174 3.01
 105  0.250  0.000  0.250- 127 2.99 268 3.00 147 3.01 175 3.01 253 3.01 188 3.01
 106  0.500  0.000  0.500- 128 2.96 189 3.01 176 3.01 278 3.01 254 3.01 148 3.02
 107  0.750  0.501  0.750- 307 2.97 298 3.00 149 3.00 265 3.00 177 3.01 280 3.02
 108  0.000  0.500  0.000- 140 2.99 269 3.00 266 3.00 150 3.00 191 3.01 178 3.01
 109  0.250  0.000  0.750- 130 2.99 184 3.00 151 3.00 180 3.01 256 3.01 271 3.01
 110  0.500  0.000  0.000- 131 2.99 272 3.00 152 3.00 193 3.01 181 3.01 257 3.01
 111  0.250  0.501  0.750- 186 2.99 134 3.00 153 3.00 304 3.00 260 3.01 275 3.02
 112  0.501  0.501  0.001- 276 2.99 154 3.00 135 3.00 182 3.01 261 3.01 195 3.02
 113  0.985  0.126  0.231-  73 2.99  85 3.00
 114  0.235  0.126  0.482- 291 2.99  86 3.00
 115  0.985  0.626  0.231-  71 2.99  87 3.00
 116  0.237  0.626  0.481-  72 2.99 293 3.00
[...]
 266  0.876  0.518  0.026- 108 3.00  98 3.01
 267  0.026  0.982  0.126- 104 3.01  85 3.01
 268  0.276  0.983  0.376- 105 3.00  86 3.01
 269  0.026  0.482  0.126- 108 3.00  87 3.02
 270  0.026  0.982  0.626-  88 3.01 100 3.01
 271  0.276  0.982  0.876-  89 3.01 109 3.01
 272  0.526  0.983  0.126- 110 3.00  90 3.01
 273  0.776  0.982  0.376-  99 3.00  91 3.01
 274  0.027  0.483  0.626-  92 3.00 102 3.02
 275  0.276  0.482  0.876-  93 3.01 111 3.02
 276  0.525  0.483  0.127- 112 2.99 292 3.06
 277  0.777  0.482  0.377-  94 3.00 101 3.01
 278  0.526  0.983  0.627-  95 3.00 106 3.01
 279  0.776  0.982  0.876-  96 3.01 103 3.01
 280  0.776  0.483  0.877-  98 3.00 107 3.02
 281  0.388  0.375  0.354-
 282  0.638  0.375  0.607-
 283  0.357  0.626  0.635-
 284  0.398  0.377  0.615-
 285  0.646  0.378  0.364-
 286  0.615  0.626  0.643-
 287  0.369  0.626  0.399-
 288  0.250  0.251  0.250- 129 2.99 147 3.00 235 3.00 309 3.01 244 3.01 211 3.01
 289  0.500  0.252  0.500- 299 2.97 313 3.00 245 3.01 148 3.01 308 3.01 212 3.02
 290  0.500  0.251  0.250- 302 2.99 119 3.00 216 3.01 245 3.01 206 3.01 235 3.01
 291  0.251  0.251  0.500- 114 2.99 303 2.99 212 3.00 309 3.01 240 3.01 228 3.02
 292  0.503  0.503  0.254- 316 2.96 306 2.97 123 2.99 302 3.02 179 3.06 276 3.06
[...]
   -.271E+02 0.339E-01 -.135E+02   0.271E+02 -.239E-01 0.135E+02   0.839E-01 -.502E-02 -.516E-01   -.342E-04 -.496E-05 -.252E-04
   -.151E+02 0.362E+00 -.105E+02   0.150E+02 -.348E+00 0.106E+02   0.153E+00 -.994E-02 -.106E+00   -.183E-04 0.126E-05 -.615E-05
   0.317E+02 0.327E+01 0.123E+02   -.316E+02 -.330E+01 -.123E+02   -.389E-01 0.288E-01 0.548E-01   0.132E-04 -.928E-05 0.310E-04
   0.268E+02 0.395E+01 0.129E+02   -.267E+02 -.399E+01 -.130E+02   -.815E-01 0.403E-01 0.634E-01   0.108E-04 -.199E-04 0.140E-04
   0.323E+02 -.310E+01 0.119E+02   -.323E+02 0.315E+01 -.119E+02   -.441E-01 -.377E-01 0.567E-01   0.117E-04 0.955E-05 0.278E-04
   0.273E+02 -.247E+01 0.117E+02   -.272E+02 0.252E+01 -.117E+02   -.835E-01 -.591E-01 0.652E-01   0.815E-05 0.209E-04 0.129E-04
   0.275E+02 0.237E+01 0.154E+02   -.274E+02 -.241E+01 -.155E+02   -.726E-01 0.435E-01 0.141E+00   0.223E-04 -.550E-05 0.120E-04
   0.278E+02 0.179E+01 0.108E+02   -.278E+02 -.180E+01 -.109E+02   -.792E-01 0.422E-02 0.745E-01   0.150E-04 -.109E-04 0.177E-04
   0.276E+02 0.526E+01 0.711E+01   -.276E+02 -.533E+01 -.710E+01   -.607E-01 0.556E-01 0.779E-02   0.135E-04 -.106E-04 0.326E-04
   0.303E+02 0.280E+02 0.139E+02   -.302E+02 -.280E+02 -.140E+02   -.329E-01 0.849E-01 0.560E-01   -.163E-04 -.772E-04 0.169E-04
   0.279E+02 -.263E+01 0.178E+02   -.278E+02 0.269E+01 -.179E+02   -.634E-01 -.489E-01 0.140E+00   0.210E-04 0.580E-05 0.112E-04
   0.281E+02 -.163E+01 0.109E+02   -.280E+02 0.166E+01 -.110E+02   -.823E-01 -.175E-01 0.688E-01   0.128E-04 0.141E-04 0.100E-04
   0.280E+02 -.453E+01 0.743E+01   -.279E+02 0.460E+01 -.742E+01   -.594E-01 -.674E-01 0.591E-02   0.136E-04 0.128E-04 0.405E-04
   0.236E+02 0.376E+01 0.103E+02   -.234E+02 -.383E+01 -.105E+02   -.161E+00 0.708E-01 0.109E+00   0.357E-04 -.684E-05 0.801E-05
   0.298E+02 0.266E+01 0.119E+02   -.297E+02 -.267E+01 -.120E+02   -.736E-01 0.150E-01 0.730E-01   0.626E-05 -.107E-04 0.283E-04
   0.292E+02 -.265E+01 0.123E+02   -.292E+02 0.268E+01 -.124E+02   -.737E-01 -.243E-01 0.680E-01   0.313E-05 0.132E-04 0.175E-04
   -.277E+02 -.196E+00 0.113E+02   0.276E+02 0.210E+00 -.114E+02   0.813E-01 -.929E-02 0.634E-01   -.217E-04 -.258E-06 0.292E-04
   -.305E+02 -.262E+00 0.113E+02   0.304E+02 0.277E+00 -.114E+02   0.762E-01 -.923E-02 0.466E-01   -.598E-05 0.291E-05 0.376E-04
   -.269E+02 0.331E+00 0.770E+01   0.268E+02 -.320E+00 -.773E+01   0.109E+00 -.740E-02 0.366E-01   -.363E-04 0.206E-05 0.257E-04
   -.283E+02 -.134E+00 0.127E+02   0.283E+02 0.146E+00 -.127E+02   0.625E-01 -.939E-02 0.805E-01   -.197E-05 0.110E-05 0.157E-04
   -.278E+02 -.164E-01 0.113E+02   0.278E+02 0.282E-01 -.113E+02   0.707E-01 -.764E-02 0.622E-01   -.255E-05 -.255E-05 0.291E-04
   -.264E+02 -.199E+00 0.994E+01   0.263E+02 0.211E+00 -.100E+02   0.915E-01 -.664E-02 0.745E-01   -.161E-04 0.165E-05 0.159E-04
   -.269E+02 -.690E+00 0.141E+02   0.268E+02 0.705E+00 -.142E+02   0.974E-01 -.887E-02 0.819E-01   -.295E-04 0.352E-05 0.145E-04
   -.308E+02 -.334E-01 0.138E+02   0.307E+02 0.359E-01 -.139E+02   0.634E-01 -.234E-04 0.741E-01   -.490E-05 -.306E-05 0.121E-04
   -.282E+02 -.124E+00 0.897E+01   0.282E+02 0.132E+00 -.903E+01   0.527E-01 -.505E-02 0.574E-01   0.998E-05 -.477E-05 0.382E-04
   -.654E+01 -.246E+00 -.795E+01   0.640E+01 0.257E+00 0.792E+01   0.136E+00 -.417E-02 0.251E-01   -.675E-04 -.768E-05 0.783E-04
   -.996E+01 0.608E+00 0.347E+02   0.985E+01 -.597E+00 -.348E+02   0.104E+00 -.699E-02 0.123E+00   -.870E-04 -.823E-06 -.354E-04
   -.297E+02 -.470E+00 0.135E+02   0.296E+02 0.485E+00 -.136E+02   0.674E-01 -.963E-02 0.105E+00   -.450E-04 0.271E-04 -.381E-04
   -.267E+02 -.624E-02 0.117E+02   0.267E+02 0.155E-01 -.118E+02   0.804E-01 -.573E-02 0.845E-01   -.256E-04 0.145E-05 0.124E-04
   -.258E+02 -.368E+00 0.127E+02   0.257E+02 0.374E+00 -.128E+02   0.860E-01 -.110E-02 0.925E-01   -.192E-04 -.187E-05 0.246E-04
   0.441E+02 0.298E+02 0.293E+00   -.433E+02 -.292E+02 -.101E+00   -.731E+00 -.531E+00 -.201E+00   -.763E-04 -.514E-04 -.165E-04
   -.180E+01 0.718E+01 0.883E+01   0.192E+01 -.697E+01 -.861E+01   -.127E+00 -.210E+00 -.227E+00   0.759E-05 0.151E-04 0.310E-04
   0.768E+01 -.103E+02 0.976E+00   -.763E+01 0.102E+02 -.103E+01   -.494E-01 0.449E-01 0.401E-01   0.188E-04 -.394E-04 -.231E-06
   0.140E+01 -.399E+01 0.513E+01   -.155E+01 0.405E+01 -.512E+01   0.145E+00 -.628E-01 -.164E-01   -.144E-04 0.710E-05 0.113E-05
[...]
   -.421E+01 -.495E+02 -.408E+01   0.390E+01 0.496E+02 0.376E+01   0.296E+00 -.841E-01 0.306E+00   0.582E-04 0.907E-04 0.771E-04
   0.121E+02 -.233E+02 0.435E+02   -.122E+02 0.235E+02 -.438E+02   0.123E+00 -.179E+00 0.300E+00   0.257E-04 0.804E-05 -.280E-04
   -.247E+02 -.195E+02 -.232E+02   0.249E+02 0.197E+02 0.235E+02   -.217E+00 -.166E+00 -.230E+00   0.585E-05 0.877E-05 -.606E-05
   -.217E+02 -.212E+02 -.260E+02   0.219E+02 0.214E+02 0.262E+02   -.207E+00 -.189E+00 -.239E+00   0.878E-05 0.167E-04 0.314E-05
   0.639E+02 0.663E+02 -.548E+02   -.643E+02 -.667E+02 0.553E+02   0.379E+00 0.387E+00 -.433E+00   -.120E-03 -.153E-03 0.831E-04
   0.304E+01 0.196E+02 -.313E+02   -.315E+01 -.197E+02 0.316E+02   0.101E+00 0.136E+00 -.313E+00   0.314E-04 -.911E-05 0.109E-04
   -.220E+02 -.199E+02 0.258E+02   0.222E+02 0.201E+02 -.261E+02   -.206E+00 -.185E+00 0.228E+00   0.157E-04 0.195E-04 0.109E-04
   -.244E+02 -.247E+02 0.279E+02   0.246E+02 0.249E+02 -.282E+02   -.209E+00 -.192E+00 0.233E+00   -.130E-04 0.670E-05 0.811E-05
   -.419E+01 0.506E+02 -.401E+01   0.389E+01 -.507E+02 0.369E+01   0.290E+00 0.104E+00 0.303E+00   0.561E-04 -.901E-04 0.766E-04
   0.128E+02 0.229E+02 0.430E+02   -.130E+02 -.231E+02 -.434E+02   0.133E+00 0.152E+00 0.296E+00   0.286E-04 -.113E-04 -.289E-04
   0.648E+02 -.667E+02 -.550E+02   -.652E+02 0.671E+02 0.555E+02   0.383E+00 -.393E+00 -.427E+00   -.117E-03 0.155E-03 0.831E-04
   0.426E+01 -.211E+02 -.320E+02   -.437E+01 0.213E+02 0.323E+02   0.121E+00 -.164E+00 -.337E+00   0.272E-04 0.880E-05 0.130E-04
   -.347E+02 0.990E+01 -.169E+02   0.350E+02 -.101E+02 0.171E+02   -.247E+00 0.182E+00 -.166E+00   0.185E-04 -.107E-04 -.226E-04
   -.228E+02 0.132E+02 -.271E+02   0.230E+02 -.134E+02 0.273E+02   -.204E+00 0.195E+00 -.227E+00   0.789E-05 -.148E-04 0.519E-05
   -.781E+00 0.676E+01 0.163E+00   -.141E-11 -.103E-12 -.103E-12   0.969E+00 -.732E+01 -.143E+01   0.601E-04 0.238E-03 -.435E-04

 POSITION                                       TOTAL-FORCE (eV/Angst)
      8.97056     20.59183     20.03999         0.000126     -0.000638     -0.001516
     -7.87047     20.59026     11.95588         0.001125      0.000266     -0.000565
      8.97101      8.83644     20.04132        -0.001159      0.001116     -0.001364
     -7.86263      8.83941     11.96573         0.001981      0.000396     -0.002800
      0.54582     20.59171     28.11260         0.000069     -0.000001     -0.001017
      0.53810     20.58775      3.89805        -0.000885     -0.000688     -0.000319
      0.55634     20.60998     11.96975         0.000191      0.000185      0.000513
      0.52989     20.62505     20.07422        -0.004275     -0.000763      0.004887
      0.54589      8.83250     28.10611         0.000013      0.000083     -0.000666
      0.52634      8.83558      3.91189         0.000534     -0.000491     -0.000377
     -7.87759     20.58617     20.04928         0.001072      0.000043     -0.001079
      8.91989     20.57959     12.00224         0.001523     -0.001953     -0.001013
     -7.87617      8.83835     20.04525         0.001311      0.000362      0.000344
      8.92740      8.84928     11.99253        -0.003745      0.000590      0.002786
     -4.73564      2.94955      7.94755        -0.002501     -0.000556     -0.004737
     -4.75081      2.95177     15.99892         0.001080     -0.000245     -0.000627
     -4.71835     14.70835      7.96454         0.002230      0.001394      0.000761
    -13.17879      2.94913     15.99967         0.000806      0.000057     -0.000314
      3.65136      2.94977      7.93874         0.001726      0.001126     -0.001924
      3.65582      2.95346     16.01098         0.000336      0.000789     -0.001651
      3.66162      2.95096     24.07255        -0.000185     -0.000919     -0.000720
    -13.18505     14.71304     16.00513         0.001122      0.000397     -0.000575
      3.66010     14.71349      7.91697         0.001288     -0.000456      0.000267
      3.68680     14.71930     24.00768        -0.001115      0.000351      0.000769
     -4.75982      2.94849     24.07972         0.000090      0.000217     -0.001744
     12.07634      2.94904     15.99962         0.001149     -0.000131     -0.000224
     -4.76303     14.71344     24.07191        -0.001273     -0.000458     -0.001749
     12.11306     14.71221     16.01089         0.001273      0.000466      0.002507
     13.16563     20.58600     16.33211         0.000391      0.001521     -0.000811
     -3.66134     20.58186      8.25723         0.001062     -0.000834     -0.000392
     13.16550      8.83599     16.32949        -0.000142     -0.000171      0.000311
     -3.66391      8.86911      8.25953        -0.001986      0.000917      0.001973
      4.76567     20.59121     24.41417        -0.000412     -0.000261     -0.000684
    -12.08421     20.59000     16.33200         0.000553     -0.000922      0.000160
      4.75580     20.57898      8.27664        -0.000022     -0.000787      0.000742
      4.76553     20.58247     16.31803        -0.000838      0.000405     -0.000104
      4.78890      8.83293     24.44432         0.000354      0.001079     -0.001775
    -12.08340      8.83401     16.32973        -0.000707      0.000520      0.000423
      4.75887      8.85065      8.28182        -0.000553     -0.001145      0.001094
     -3.66153     20.58680     16.32938         0.001763     -0.000056      0.001302
     -3.66811     20.58962     24.41497        -0.000865      0.000789      0.000265
     -3.67013      8.83377     24.41369         0.000800     -0.000408     -0.000741
     -0.54845      2.94810      4.21570        -0.000003     -0.000002     -0.000041
     -0.54414      2.95721     12.30637        -0.000977     -0.002777     -0.001002
     -0.54657     14.71133      4.22740        -0.000940      0.000461     -0.000674
     -8.96957      2.94775     12.29640         0.001160     -0.000784     -0.001304
     -8.96979      2.94811     20.37198         0.001420     -0.000313      0.001372
      7.86808      2.94920     12.29300         0.001070      0.000077      0.000883
      7.86490      2.95029     20.36833        -0.000103     -0.000137      0.000468
     -8.95708     14.70764     12.28885        -0.001528      0.001623      0.000037
     -8.95895     14.70918     20.37108        -0.001300      0.000671      0.000718
      7.80518     14.71528     12.35852        -0.000113      0.000106     -0.001437
      7.81750     14.71330     20.37778        -0.001345      0.000203      0.003484
     -0.54189      2.94873     20.34941        -0.001309      0.001322      0.001591
     -0.55287      2.94746     28.45508        -0.000569     -0.000155     -0.000337
     -0.54341     14.71216     28.44442        -0.000390      0.000305     -0.000184
      8.39671     17.63194     16.16749         0.001413     -0.000695      0.001017
     -8.41824     17.65795      8.08130        -0.001805      0.001708     -0.002816
      8.41634      5.90201     16.16350        -0.001752      0.000586     -0.000006
     -8.41676      5.89248      8.08389        -0.000958     -0.000316     -0.002285
[...]
      2.42751     11.16339     17.90272         0.000256      0.002416     -0.000053
      1.59181     12.01587     13.64212         0.002968      0.005060      0.000981
      1.68093     12.17171     21.82886        -0.001170      0.001413      0.000308
     -1.68913      6.31213     18.62498         0.000359      0.001726     -0.003088
     -1.69010      6.32088     10.54116        -0.001352     -0.002423     -0.002084
      5.90149     17.24792     14.61971         0.003751      0.000966      0.001960
     -2.51859     17.31148     14.58576        -0.000551      0.001087     -0.001985
     -5.90175      6.31818     17.75001        -0.000827     -0.001415     -0.002385
      2.52518      6.34029     17.74673         0.003855     -0.001340      0.004183
      1.59163     17.42184     13.64105        -0.000948      0.001115     -0.000146
      1.67747     17.30318     21.81546        -0.000581     -0.001085      0.001201
      5.90247     12.20294     14.62436         0.001563     -0.000073      0.001202
     -2.51977     12.16117     14.61911         0.001764     -0.002770      0.000565
     -1.69666     11.34935     18.62841        -0.000431     -0.000456     -0.002449
     -1.67911     11.32556     10.55179        -0.000609      0.001509     -0.001058
    total drift:                                0.188167     -0.555754     -1.267090

  FREE ENERGIE OF THE ION-ELECTRON SYSTEM (eV)
  free  energy   TOTEN  =    -11395.71362178 eV

  energy  without entropy=   -11395.71362178  energy(sigma->0) =   -11395.71362178

 stress matrix after NEB project (eV)
     -4.64166      0.01316      0.01290
      0.01317     -4.88350      0.05982
      0.01293      0.05983     -7.80519
  FORCES: max atom, RMS     0.008092    0.002676
  FORCE total and by dimension    0.047802    0.006511
  Stress total and by dimension   10.311275    7.805189

 reached required accuracy - stopping structural energy minimisation

 total charge

# of ion       s       p       d       tot
    1        1.786   4.719   0.019   6.524
    2        1.786   4.719   0.019   6.524
    3        1.786   4.719   0.019   6.524
    4        1.786   4.719   0.019   6.524
    5        1.786   4.719   0.019   6.524
    6        1.786   4.719   0.019   6.524
    7        1.786   4.719   0.020   6.525
    8        1.786   4.719   0.020   6.525
    9        1.786   4.719   0.019   6.524
   10        1.786   4.719   0.019   6.524
   11        1.786   4.719   0.019   6.524
   12        1.786   4.719   0.019   6.524
   13        1.786   4.719   0.019   6.524
   14        1.786   4.719   0.019   6.523
   15        1.786   4.719   0.019   6.524
   16        1.786   4.719   0.019   6.524
   17        1.786   4.719   0.018   6.523
   18        1.786   4.719   0.019   6.524
   19        1.786   4.719   0.019   6.524
   20        1.786   4.719   0.019   6.524
   21        1.786   4.719   0.019   6.524
   22        1.786   4.719   0.019   6.524
   23        1.786   4.719   0.019   6.525
   24        1.786   4.719   0.019   6.524
   25        1.786   4.719   0.019   6.524
   26        1.786   4.719   0.019   6.524
   27        1.786   4.719   0.019   6.524
   28        1.786   4.719   0.019   6.525
   29        1.786   4.719   0.019   6.524
   30        1.786   4.719   0.019   6.524
   31        1.786   4.719   0.019   6.524
   32        1.786   4.719   0.019   6.524
   33        1.786   4.719   0.019   6.525
   34        1.786   4.719   0.019   6.524
   35        1.786   4.719   0.019   6.524
   36        1.786   4.719   0.019   6.525
   37        1.786   4.719   0.019   6.525
   38        1.786   4.719   0.019   6.524
   39        1.786   4.719   0.019   6.524
   40        1.786   4.719   0.019   6.525
   41        1.786   4.719   0.019   6.525
   42        1.786   4.719   0.019   6.525
   43        1.786   4.719   0.019   6.524
   44        1.786   4.719   0.019   6.524
   45        1.786   4.719   0.019   6.524
   46        1.786   4.719   0.019   6.525
   47        1.786   4.719   0.019   6.524
   48        1.786   4.719   0.019   6.524
   49        1.786   4.719   0.019   6.524
   50        1.786   4.719   0.019   6.524
   51        1.786   4.719   0.019   6.524
   52        1.786   4.719   0.019   6.524
   53        1.786   4.719   0.019   6.523
   54        1.786   4.719   0.019   6.524
   55        1.786   4.719   0.019   6.525
   56        1.786   4.719   0.019   6.525
   57        1.554   0.417   9.833  11.804
   58        1.555   0.418   9.834  11.806
   59        1.555   0.417   9.833  11.805
   60        1.555   0.417   9.833  11.805
[...]
  305        1.615   3.285   0.006   4.906
  306        1.615   3.284   0.006   4.905
  307        1.614   3.286   0.006   4.906
  308        1.614   3.285   0.006   4.904
  309        1.614   3.284   0.006   4.904
  310        1.615   3.275   0.007   4.897
  311        1.614   3.285   0.006   4.904
  312        1.614   3.284   0.006   4.904
  313        1.614   3.283   0.006   4.903
  314        1.615   3.284   0.006   4.905
  315        1.614   3.285   0.006   4.906
  316        1.615   3.275   0.007   4.897
  317        1.614   3.285   0.006   4.905
  318        1.614   3.284   0.006   4.904
  319        1.614   3.284   0.006   4.904
tot        521.908 954.722 631.6932108.322