 vasp.5.4.4.18Apr17-6-g9f103f2a35 (build Jun 29 2021 13:39:03) complex

 INCAR:
 POTCAR:    PAW_PBE Cs_sv 08Apr2002
 POTCAR:    PAW_PBE Pb_d 06Sep2000
 POTCAR:    PAW_PBE Br 06Sep2000
 POTCAR:    PAW_PBE Cs_sv 08Apr2002
   VRHFIN =Cs: 5s5p6s

   TITEL  = PAW_PBE Cs_sv 08Apr2002
   POMASS =  132.900; ZVAL   =    9.000    mass and valenz
   ENMAX  =  220.318; ENMIN  =  165.238 eV

   TITEL  = PAW_PBE Pb_d 06Sep2000
   POMASS =  207.200; ZVAL   =   14.000    mass and valenz
   ENMAX  =  237.835; ENMIN  =  178.376 eV

   TITEL  = PAW_PBE Br 06Sep2000
   POMASS =   79.904; ZVAL   =    7.000    mass and valenz
   ENMAX  =  216.285; ENMIN  =  162.214 eV

 Optimization of the real space projectors (new method)

 maximal supplied QI-value         = 15.12
 optimisation between [QCUT,QGAM] = [ 12.55, 25.10] = [ 44.09,176.36] Ry
 Optimized for a Real-space Cutoff    1.47 Angstroem

   l    n(q)    QCUT    max X(q) W(low)/X(q) W(high)/X(q)  e(spline)
   0     11    12.548    25.322    0.38E-04    0.18E-04    0.10E-05
   0     11    12.548    99.187    0.36E-04    0.17E-04    0.98E-06
   1     11    12.548    11.761    0.23E-03    0.31E-03    0.90E-06
   1     11    12.548     8.275    0.24E-03    0.34E-03    0.99E-06
   2     10    12.548     3.829    0.23E-03    0.26E-04    0.72E-06
 Optimization of the real space projectors (new method)

[...]

   l    n(q)    QCUT    max X(q) W(low)/X(q) W(high)/X(q)  e(spline)
   2      9    12.548     3.846    0.15E-03    0.13E-04    0.17E-06
   2      9    12.548     8.593    0.12E-03    0.38E-04    0.12E-06
   0     10    12.548    20.082    0.44E-04    0.25E-04    0.28E-06
   0     10    12.548     8.597    0.57E-04    0.35E-04    0.39E-06
   1     10    12.548    33.223    0.72E-04    0.14E-03    0.14E-06
   1     10    12.548    15.899    0.64E-04    0.13E-03    0.12E-06
 Optimization of the real space projectors (new method)

 maximal supplied QI-value         = 17.95
 optimisation between [QCUT,QGAM] = [ 12.39, 24.95] = [ 42.97,174.37] Ry
 Optimized for a Real-space Cutoff    1.20 Angstroem

   l    n(q)    QCUT    max X(q) W(low)/X(q) W(high)/X(q)  e(spline)
   0      9    12.387   175.082    0.21E-03    0.13E-03    0.49E-07
   0      9    12.387   174.004    0.20E-03    0.12E-03    0.48E-07
   1      8    12.387    54.315    0.17E-03    0.15E-03    0.16E-06
   1      8    12.387    42.441    0.17E-03    0.14E-03    0.16E-06
   2      8    12.387     3.596    0.23E-03    0.14E-03    0.41E-07
  PAW_PBE Cs_sv 08Apr2002               :
  PAW_PBE Pb_d 06Sep2000                :
  PAW_PBE Br 06Sep2000                  :

 POSCAR: Cs4 Pb4 Br12
  positions in direct lattice
  velocities in cartesian coordinates

 METAGGA = SCAN     LMAXTAU =  6    LMIXTAU =  F

 VTST: version 3.2, (02/03/18)

 CHAIN: initializing optimizer

 OPT: Using VASP Conjugate-Gradient optimizer
 CHAIN: Read ICHAIN            0

 POSCAR: Cs4 Pb4 Br12
  positions in direct lattice
  velocities in cartesian coordinates

 ion  position               nearest neighbor table
   1  0.052  0.250  0.488-
   2  0.448  0.750  0.988-
   3  0.552  0.250  0.012-
   4  0.948  0.750  0.512-
   5  0.000  0.000  0.000-  10 2.99  11 2.99  16 3.01  17 3.01  15 3.01  18 3.01
   6  0.500  0.000  0.500-   9 2.99  12 2.99  15 3.01  18 3.01  17 3.01  16 3.01
   7  0.500  0.500  0.500-   9 2.99  12 2.99  14 3.01  20 3.01  19 3.01  13 3.01
   8  0.000  0.500  0.000-  10 2.99  11 2.99  13 3.01  19 3.01  14 3.01  20 3.01
   9  0.507  0.750  0.428-   6 2.99   7 2.99
  10  0.993  0.250  0.928-   5 2.99   8 2.99
  11  0.007  0.750  0.072-   5 2.99   8 2.99
  12  0.493  0.250  0.572-   6 2.99   7 2.99
  13  0.292  0.464  0.208-   8 3.01   7 3.01
  14  0.208  0.536  0.708-   7 3.01   8 3.01
  15  0.792  0.036  0.292-   6 3.01   5 3.01
  16  0.708  0.964  0.792-   5 3.01   6 3.01
  17  0.292  0.036  0.208-   5 3.01   6 3.01
  18  0.208  0.964  0.708-   6 3.01   5 3.01
  19  0.708  0.536  0.792-   8 3.01   7 3.01
  20  0.792  0.464  0.292-   7 3.01   8 3.01

  LATTYP: Found a simple orthorhombic cell.
 ALAT       =     8.2847974879
 B/A-ratio  =     1.0042876706
 C/A-ratio  =     1.4119934225

  Lattice vectors:

 A1 = (  -8.2847974879,   0.0000000000,   0.0000000000)
 A2 = (   0.0000000000,   0.0000000000,  -8.3203199703)
 A3 = (   0.0000000000, -11.6980795595,   0.0000000000)

Analysis of symmetry for initial positions (statically):
 Subroutine PRICEL returns:
 Original cell was already a primitive cell.

 Routine SETGRP: Setting up the symmetry group for a
 simple orthorhombic supercell.

 Subroutine GETGRP returns: Found  8 space group operations
 (whereof  2 operations were pure point group operations)
 out of a pool of  8 trial point group operations.

The static configuration has the point symmetry S_2 .
 The point group associated with its full space group is D_2h.

Analysis of symmetry for dynamics (positions and initial velocities):
 Subroutine PRICEL returns:
 Original cell was already a primitive cell.

 Routine SETGRP: Setting up the symmetry group for a
 simple orthorhombic supercell.

 Subroutine GETGRP returns: Found  8 space group operations
 (whereof  2 operations were pure point group operations)
 out of a pool of  8 trial point group operations.

The dynamic configuration has the point symmetry S_2 .
 The point group associated with its full space group is D_2h.

 Subroutine INISYM returns: Found  8 space group operations
 (whereof  2 operations are pure point group operations),
 and found     1 'primitive' translations

 KPOINTS: 1x1x1

Automatic generation of k-mesh.
Space group operators:
 irot       det(A)        alpha          n_x          n_y          n_z        tau_x        tau_y        tau_z
    1     1.000000     0.000000     1.000000     0.000000     0.000000     0.000000     0.000000     0.000000
    2    -1.000000     0.000000     1.000000     0.000000     0.000000     0.000000     0.000000     0.000000
    3     1.000000   180.000000     0.000000     1.000000     0.000000     0.000000    -0.500000     0.000000
    4    -1.000000   180.000000     0.000000     1.000000     0.000000     0.000000    -0.500000     0.000000
    5     1.000000   180.000000     0.000000     0.000000     1.000000    -0.500000     0.000000    -0.500000
    6    -1.000000   180.000000     0.000000     0.000000     1.000000    -0.500000     0.000000    -0.500000
    7     1.000000   180.000000     1.000000     0.000000     0.000000    -0.500000    -0.500000    -0.500000
    8    -1.000000   180.000000     1.000000     0.000000     0.000000    -0.500000    -0.500000    -0.500000

 Subroutine IBZKPT returns following result:

 Found    100 irreducible k-points:

 Following reciprocal coordinates:
            Coordinates               Weight
  0.000000  0.000000  0.000000      1.000000
  0.125000  0.000000  0.000000      2.000000
  0.250000  0.000000  0.000000      2.000000
  0.375000  0.000000  0.000000      2.000000
  0.500000  0.000000  0.000000      1.000000
  0.000000  0.166667  0.000000      2.000000
  0.125000  0.166667  0.000000      4.000000
  0.250000  0.166667  0.000000      4.000000
  0.375000  0.166667  0.000000      4.000000
  0.500000  0.166667  0.000000      2.000000
  0.000000  0.333333  0.000000      2.000000
  0.125000  0.333333  0.000000      4.000000
  0.250000  0.333333  0.000000      4.000000
  0.375000  0.333333  0.000000      4.000000
  0.500000  0.333333  0.000000      2.000000
  0.000000  0.500000  0.000000      1.000000
  0.125000  0.500000  0.000000      2.000000
  0.250000  0.500000  0.000000      2.000000
  0.375000  0.500000  0.000000      2.000000
  0.500000  0.500000  0.000000      1.000000
  0.000000  0.000000  0.125000      2.000000
  0.125000  0.000000  0.125000      4.000000
  0.250000  0.000000  0.125000      4.000000
  0.375000  0.000000  0.125000      4.000000
  0.500000  0.000000  0.125000      2.000000
  0.000000  0.166667  0.125000      4.000000
  0.125000  0.166667  0.125000      8.000000
  0.250000  0.166667  0.125000      8.000000
  0.375000  0.166667  0.125000      8.000000
  0.500000  0.166667  0.125000      4.000000
  0.000000  0.333333  0.125000      4.000000
  0.125000  0.333333  0.125000      8.000000
  0.250000  0.333333  0.125000      8.000000
  0.375000  0.333333  0.125000      8.000000
  0.500000  0.333333  0.125000      4.000000
  0.000000  0.500000  0.125000      2.000000
  0.125000  0.500000  0.125000      4.000000
  0.250000  0.500000  0.125000      4.000000
  0.375000  0.500000  0.125000      4.000000
  0.500000  0.500000  0.125000      2.000000
  0.000000  0.000000  0.250000      2.000000
  0.125000  0.000000  0.250000      4.000000
  0.250000  0.000000  0.250000      4.000000
  0.375000  0.000000  0.250000      4.000000
  0.500000  0.000000  0.250000      2.000000
  0.000000  0.166667  0.250000      4.000000
  0.125000  0.166667  0.250000      8.000000
  0.250000  0.166667  0.250000      8.000000
  0.375000  0.166667  0.250000      8.000000
  0.500000  0.166667  0.250000      4.000000
  0.000000  0.333333  0.250000      4.000000
  0.125000  0.333333  0.250000      8.000000
  0.250000  0.333333  0.250000      8.000000
  0.375000  0.333333  0.250000      8.000000
  0.500000  0.333333  0.250000      4.000000
  0.000000  0.500000  0.250000      2.000000
  0.125000  0.500000  0.250000      4.000000
  0.250000  0.500000  0.250000      4.000000
  0.375000  0.500000  0.250000      4.000000
  0.500000  0.500000  0.250000      2.000000
[...]
  0.000000  0.166667  0.500000      2.000000
  0.125000  0.166667  0.500000      4.000000
  0.250000  0.166667  0.500000      4.000000
  0.375000  0.166667  0.500000      4.000000
  0.500000  0.166667  0.500000      2.000000
  0.000000  0.333333  0.500000      2.000000
  0.125000  0.333333  0.500000      4.000000
  0.250000  0.333333  0.500000      4.000000
  0.375000  0.333333  0.500000      4.000000
  0.500000  0.333333  0.500000      2.000000
  0.000000  0.500000  0.500000      1.000000
  0.125000  0.500000  0.500000      2.000000
  0.250000  0.500000  0.500000      2.000000
  0.375000  0.500000  0.500000      2.000000
  0.500000  0.500000  0.500000      1.000000

 Following cartesian coordinates:
            Coordinates               Weight
  0.000000  0.000000  0.000000      1.000000
  0.015088  0.000000  0.000000      2.000000
  0.030176  0.000000  0.000000      2.000000
  0.045264  0.000000  0.000000      2.000000
  0.060352  0.000000  0.000000      1.000000
  0.000000  0.014247  0.000000      2.000000
  0.015088  0.014247  0.000000      4.000000
  0.030176  0.014247  0.000000      4.000000
  0.045264  0.014247  0.000000      4.000000
  0.060352  0.014247  0.000000      2.000000
  0.000000  0.028495  0.000000      2.000000
  0.015088  0.028495  0.000000      4.000000
  0.030176  0.028495  0.000000      4.000000
  0.045264  0.028495  0.000000      4.000000
  0.060352  0.028495  0.000000      2.000000
  0.000000  0.042742  0.000000      1.000000
  0.015088  0.042742  0.000000      2.000000
  0.030176  0.042742  0.000000      2.000000
  0.045264  0.042742  0.000000      2.000000
  0.060352  0.042742  0.000000      1.000000
  0.000000  0.000000  0.015023      2.000000
  0.015088  0.000000  0.015023      4.000000
[...]
 number of electron     175.9999999 magnetization
 augmentation part       -2.3828943 magnetization

[...]

 Broyden mixing:
  rms(total) = 0.12828E-04    rms(broyden)= 0.11306E-04
  rms(prec ) = 0.11764E-04
  weight for this iteration     100.00
  WARNING: grid for Broyden might be to small

[...]

 Broyden mixing:
  rms(total) = 0.30486E-04    rms(broyden)= 0.29878E-04
  rms(prec ) = 0.30656E-04
  weight for this iteration     100.00

 eigenvalues of (default mixing * dielectric matrix)
  average eigenvalue GAMMA=   1.4526
  9.0110  9.0110  3.6139  2.4359  2.4359  3.0293  2.7110  2.4216  2.1281  2.1281
  1.6129  1.6129  1.2799  1.2799  1.3552  0.9611  0.9611  0.5355  0.5355  0.9287
  0.9287  0.8429  0.8429  0.6513  0.6513  0.0608  0.0035  0.6080  0.6080  0.6481
  0.6481  0.0715  0.2643  0.2643  0.2816  0.2816  0.2677  0.4313  0.4313  0.3900
  0.3900

[...]

--------------------------------------- Iteration      1(  52)  ---------------------------------------

 eigenvalue-minimisations  : 14648
 total energy-change (2. order) :-0.2798743E-08  (-0.9968724E-09)
 number of electron     175.9999999 magnetization
 augmentation part       -2.3828866 magnetization

 Free energy of the ion-electron system (eV)
  alpha Z        PSCENC =       447.44616120
  Ewald energy   TEWEN  =     -9210.80695779
  -Hartree energ DENC   =     -3679.17027493
  -exchange      EXHF   =         0.00000000
  -V(xc)+E(xc)   XCENC  =       481.58149734
  PAW double counting   =     11534.41350006   -12070.77311761
  entropy T*S    EENTRO =        -0.00000000
  eigenvalues    EBANDS =     -1508.36451564
  atomic energy  EATOM  =     13290.57232999
  Solvation  Ediel_sol  =         0.00000000
  free energy    TOTEN  =      -715.10137738 eV

  energy without entropy =     -715.10137738  energy(sigma->0) =     -715.10137738

 average (electrostatic) potential at core
  the test charge radii are     1.1312  1.1541  1.0178
  (the norm of the test charge is              1.0000)
       1 -55.3030       2 -55.3035       3 -55.3030       4 -55.3035       5-101.6746
       6-101.6746       7-101.6746       8-101.6746       9 -69.0082      10 -69.0082
      11 -69.0082      12 -69.0082      13 -68.9876      14 -68.9876      15 -68.9876
      16 -68.9876      17 -68.9876      18 -68.9876      19 -68.9876      20 -68.9876

 E-fermi :   0.5647     XC(G=0):  -8.0586     alpha+bet : -7.0197

 k-point     1 :       0.0000    0.0000    0.0000
  band No.  band energies     occupation
      1     -20.8218      2.00000
      2     -20.8202      2.00000
      3     -20.8183      2.00000
      4     -20.8172      2.00000
      5     -16.4867      2.00000
      6     -16.4781      2.00000
      7     -16.4779      2.00000
      8     -16.4617      2.00000
      9     -16.4264      2.00000
     10     -16.3953      2.00000
     11     -16.3933      2.00000
     12     -16.3933      2.00000
     13     -16.3321      2.00000
     14     -16.3316      2.00000
     15     -16.3311      2.00000
     16     -16.3305      2.00000
     17     -16.3247      2.00000
     18     -16.3244      2.00000
     19     -16.3242      2.00000
     20     -16.3236      2.00000
     21     -16.3227      2.00000
     22     -16.3223      2.00000
     23     -16.3217      2.00000
     24     -16.3217      2.00000
     25     -14.3497      2.00000
     26     -14.1573      2.00000
     27     -14.0507      2.00000
     28     -14.0417      2.00000
     29     -14.0179      2.00000
     30     -14.0114      2.00000
     31     -14.0017      2.00000
     32     -13.9906      2.00000
     33     -13.9788      2.00000
     34     -13.7570      2.00000
     35     -13.7462      2.00000
     36     -13.7408      2.00000
     37      -8.1840      2.00000
     38      -7.6730      2.00000
     39      -7.2456      2.00000
     40      -7.2411      2.00000
     41      -7.2406      2.00000
     42      -7.2384      2.00000
     43      -7.2122      2.00000
     44      -7.2076      2.00000
     45      -7.2051      2.00000
     46      -7.1995      2.00000
     47      -7.1968      2.00000
     48      -7.1946      2.00000
     49      -7.1801      2.00000
     50      -7.1744      2.00000
     51      -7.1584      2.00000
     52      -6.5437      2.00000
     53      -3.3171      2.00000
     54      -3.3162      2.00000
     55      -3.2207      2.00000
     56      -3.2115      2.00000
     57      -3.1201      2.00000
     58      -3.0961      2.00000
     59      -2.1272      2.00000
     60      -1.9131      2.00000
[...]
     98       5.9778      0.00000
     99       6.0283      0.00000
    100       6.0656      0.00000
    101       6.1496      0.00000
    102       6.2611      0.00000
    103       6.2635      0.00000
    104       6.4623      0.00000
    105       6.5231      0.00000
    106       6.5461      0.00000
    107       6.5508      0.00000
    108       6.7292      0.00000
    109       6.7388      0.00000
    110       6.7539      0.00000
    111       6.8130      0.00000
    112       6.9358      0.00000

[...]

 k-point   100 :       0.5000    0.5000    0.5000
  band No.  band energies     occupation
      1     -20.8193      2.00000
      2     -20.8193      2.00000
      3     -20.8193      2.00000
      4     -20.8193      2.00000
      5     -16.4641      2.00000
      6     -16.4641      2.00000
      7     -16.4641      2.00000
      8     -16.4641      2.00000
      9     -16.4158      2.00000
     10     -16.4158      2.00000
     11     -16.4158      2.00000
     12     -16.4158      2.00000
     13     -16.3313      2.00000
     14     -16.3313      2.00000
     15     -16.3313      2.00000
     16     -16.3313      2.00000
     17     -16.3242      2.00000
     18     -16.3242      2.00000
     19     -16.3242      2.00000
     20     -16.3242      2.00000
     21     -16.3222      2.00000
     22     -16.3222      2.00000
     23     -16.3222      2.00000
     24     -16.3222      2.00000
     25     -14.1364      2.00000
     26     -14.1364      2.00000
     27     -14.1364      2.00000
     28     -14.1364      2.00000
     29     -14.0122      2.00000
     30     -14.0122      2.00000
     31     -14.0122      2.00000
     32     -14.0122      2.00000
     33     -13.8207      2.00000
     34     -13.8207      2.00000
     35     -13.8207      2.00000
     36     -13.8207      2.00000
     37      -7.4709      2.00000
     38      -7.4709      2.00000
     39      -7.4709      2.00000
     40      -7.4709      2.00000
     41      -7.2128      2.00000
     42      -7.2128      2.00000
     43      -7.2128      2.00000
     44      -7.2128      2.00000
     45      -7.1877      2.00000
     46      -7.1877      2.00000
     47      -7.1877      2.00000
     48      -7.1877      2.00000
     49      -7.1778      2.00000
     50      -7.1778      2.00000
     51      -7.1778      2.00000
     52      -7.1778      2.00000
     53      -3.1117      2.00000
     54      -3.1117      2.00000
     55      -3.1117      2.00000
     56      -3.1117      2.00000
     57      -2.4707      2.00000
     58      -2.4707      2.00000
     59      -2.4707      2.00000
     60      -2.4707      2.00000
[...]
     98       5.7281      0.00000
     99       5.7281      0.00000
    100       5.7281      0.00000
    101       6.5576      0.00000
    102       6.5576      0.00000
    103       6.5576      0.00000
    104       6.5576      0.00000
    105       6.7497      0.00000
    106       6.7497      0.00000
    107       6.7497      0.00000
    108       6.7497      0.00000
    109       6.9008      0.00000
    110       6.9008      0.00000
    111       6.9008      0.00000
    112       6.9008      0.00000

 soft charge-density along one line, spin component           1
         0         1         2         3         4         5         6         7         8         9
 total charge-density along one line

------------------------ aborting loop because EDIFF is reached ----------------------------------------

 total charge

# of ion       s       p       d       tot
    1        1.786   4.713   0.017   6.516
    2        1.786   4.713   0.017   6.516
    3        1.786   4.713   0.017   6.516
    4        1.786   4.713   0.017   6.516
    5        1.552   0.422   9.841  11.815
    6        1.552   0.422   9.841  11.815
    7        1.552   0.422   9.841  11.815
    8        1.552   0.422   9.841  11.815
    9        1.616   3.291   0.006   4.914
   10        1.616   3.291   0.006   4.914
   11        1.616   3.291   0.006   4.914
   12        1.616   3.291   0.006   4.914
   13        1.616   3.276   0.006   4.899
   14        1.615   3.301   0.006   4.921
   15        1.615   3.301   0.006   4.921
   16        1.616   3.276   0.006   4.899
   17        1.616   3.276   0.006   4.899
   18        1.615   3.301   0.006   4.921
   19        1.616   3.276   0.006   4.899
   20        1.615   3.301   0.006   4.921
tot         32.740  60.013  39.507 132.260

  FORCE on cell =-STRESS in cart. coord.  units (eV):
  Direction    XX          YY          ZZ          XY          YZ          ZX
  Alpha Z   447.44616   447.44616   447.44616
  Ewald   -3118.97832 -3011.06214 -3080.79596     0.00000    -0.00000     0.00000
  Hartree  1196.04082  1264.17574  1218.95328     0.00000    -0.00000    -0.00000
  E(xc)    -739.03528  -739.01821  -739.05081     0.00002    -0.00040    -0.03814
  Local   -1344.68618 -1519.65207 -1404.40174    -0.00000    -0.00000     0.00000
  n-local   898.29295   899.44767   898.82602     0.02766     0.01955     0.14797
  augment   405.69899   405.83152   406.16074     0.00000     0.00000     0.00000
  Kinetic  2255.20697  2252.82349  2251.57272    -0.00067    -0.01952    -1.76780
  Fock        0.00000     0.00000     0.00000     0.00000     0.00000     0.00000
  Total      -0.01389    -0.00784    -1.28958     0.00000     0.00000    -0.00000
  in kB      -0.02759    -0.01558    -2.56226     0.00000     0.00000    -0.00000

 VOLUME and BASIS-vectors are now :
  energy-cutoff  :      600.00
  volume of cell :      806.37
      direct lattice vectors                 reciprocal lattice vectors
     8.284797488  0.000000000  0.000000000     0.120703011  0.000000000  0.000000000
     0.000000000 11.698079559  0.000000000     0.000000000  0.085484117  0.000000000
     0.000000000  0.000000000  8.320319970     0.000000000  0.000000000  0.120187686

  length of vectors
     8.284797488 11.698079559  8.320319970     0.120703011  0.085484117  0.120187686

 FORCES acting on ions
    electron-ion (+dipol)            ewald-force                    non-local-force                 convergence-correction
   0.258E+02 -.316E-13 -.775E+01   -.257E+02 -.213E-13 0.777E+01   -.769E-01 0.203E-19 -.140E-01   0.328E-04 -.157E-12 -.114E-03
   -.258E+02 0.121E-12 -.775E+01   0.257E+02 0.000E+00 0.777E+01   0.769E-01 -.271E-19 -.140E-01   -.328E-04 0.457E-13 -.114E-03
   0.258E+02 0.116E-11 0.775E+01   -.257E+02 -.711E-14 -.777E+01   -.769E-01 0.271E-19 0.140E-01   0.328E-04 -.123E-12 0.114E-03
   -.258E+02 -.161E-11 0.775E+01   0.257E+02 -.711E-14 -.777E+01   0.769E-01 -.203E-19 0.140E-01   -.328E-04 0.129E-12 0.114E-03
   0.464E-12 0.217E-12 -.180E-12   0.249E-13 0.114E-12 0.568E-13   0.000E+00 0.000E+00 -.853E-25   -.205E-12 -.102E-12 -.253E-12
   -.115E-11 0.117E-11 0.110E-10   0.711E-14 0.108E-12 0.000E+00   0.000E+00 0.000E+00 0.177E-23   0.284E-13 -.222E-12 0.165E-12
   0.447E-12 0.318E-11 0.626E-11   0.284E-13 -.995E-13 -.426E-13   0.000E+00 0.000E+00 -.102E-23   -.474E-13 -.724E-13 -.323E-13
   0.507E-12 0.169E-11 -.161E-12   0.284E-13 -.128E-12 0.426E-13   0.000E+00 0.000E+00 0.210E-23   -.231E-12 -.477E-13 0.368E-15
   0.918E+01 0.226E-11 0.360E+02   -.925E+01 0.000E+00 -.363E+02   0.652E-01 0.108E-18 0.266E+00   0.724E-05 0.722E-13 0.266E-04
   -.918E+01 -.295E-13 0.360E+02   0.925E+01 0.142E-13 -.363E+02   -.652E-01 -.112E-18 0.266E+00   -.724E-05 0.235E-13 0.266E-04
   0.918E+01 0.321E-13 -.360E+02   -.925E+01 0.142E-13 0.363E+02   0.652E-01 0.112E-18 -.266E+00   0.724E-05 -.740E-13 -.266E-04
   -.918E+01 0.336E-11 -.360E+02   0.925E+01 0.000E+00 0.363E+02   -.652E-01 -.108E-18 -.266E+00   -.724E-05 -.742E-13 -.266E-04
   -.175E+02 0.187E+02 0.207E+02   0.176E+02 -.189E+02 -.209E+02   -.146E+00 0.157E+00 0.156E+00   0.157E-06 -.199E-04 0.380E-05
   0.175E+02 -.187E+02 0.207E+02   -.176E+02 0.189E+02 -.209E+02   0.146E+00 -.157E+00 0.156E+00   -.157E-06 0.199E-04 0.380E-05
   -.175E+02 -.187E+02 -.207E+02   0.176E+02 0.189E+02 0.209E+02   -.146E+00 -.157E+00 -.156E+00   0.157E-06 0.199E-04 -.380E-05
   0.175E+02 0.187E+02 -.207E+02   -.176E+02 -.189E+02 0.209E+02   0.146E+00 0.157E+00 -.156E+00   -.157E-06 -.199E-04 -.380E-05
   -.175E+02 -.187E+02 0.207E+02   0.176E+02 0.189E+02 -.209E+02   -.146E+00 -.157E+00 0.156E+00   0.157E-06 0.199E-04 0.380E-05
   0.175E+02 0.187E+02 0.207E+02   -.176E+02 -.189E+02 -.209E+02   0.146E+00 0.157E+00 0.156E+00   -.157E-06 -.199E-04 0.380E-05
   0.175E+02 -.187E+02 -.207E+02   -.176E+02 0.189E+02 0.209E+02   0.146E+00 -.157E+00 -.156E+00   -.157E-06 0.199E-04 -.380E-05
   -.175E+02 0.187E+02 -.207E+02   0.176E+02 -.189E+02 0.209E+02   -.146E+00 0.157E+00 -.156E+00   0.157E-06 -.199E-04 -.380E-05
   -.546E-11 0.639E-11 0.127E-10   0.426E-13 -.497E-13 0.924E-13   0.000E+00 0.000E+00 0.555E-16   -.226E-12 -.602E-12 -.393E-12

 POSITION                                       TOTAL-FORCE (eV/Angst)
      0.43403      2.92452      4.06230         0.000828     -0.000000     -0.000015
      3.70836      8.77356      8.22246        -0.000828      0.000000     -0.000015
      4.57643      2.92452      0.09786         0.000828      0.000000      0.000015
      7.85076      8.77356      4.25802        -0.000828      0.000000      0.000015
      0.00000      0.00000      0.00000         0.000000      0.000000      0.000000
      4.14240      0.00000      4.16016         0.000000      0.000000      0.000000
      4.14240      5.84904      4.16016         0.000000      0.000000      0.000000
      0.00000      5.84904      0.00000         0.000000      0.000000      0.000000
      4.19932      8.77356      3.56086         0.000681      0.000000      0.000705
      8.22788      2.92452      7.72102        -0.000681      0.000000      0.000705
      0.05692      8.77356      0.59930         0.000681      0.000000     -0.000705
      4.08548      2.92452      4.75946        -0.000681      0.000000     -0.000705
      2.42167      5.42390      1.73074        -0.000147     -0.000409      0.000685
      1.72073      6.27418      5.89090         0.000147      0.000409      0.000685
      6.56406      0.42514      2.42942        -0.000147      0.000409     -0.000685
      5.86313     11.27294      6.58958         0.000147     -0.000409     -0.000685
      2.42167      0.42514      1.73074        -0.000147      0.000409      0.000685
      1.72073     11.27294      5.89090         0.000147     -0.000409      0.000685
      5.86313      6.27418      6.58958         0.000147      0.000409     -0.000685
      6.56406      5.42390      2.42942        -0.000147     -0.000409     -0.000685
    total drift:                               -0.000000      0.000000      0.000000

  FREE ENERGIE OF THE ION-ELECTRON SYSTEM (eV)
  free  energy   TOTEN  =      -715.10137738 eV

  energy  without entropy=     -715.10137738  energy(sigma->0) =     -715.10137738

 stress matrix after NEB project (eV)
     -0.01389      0.00000     -0.00000
      0.00000     -0.00784      0.00000
     -0.00000      0.00000     -1.28958
  FORCES: max atom, RMS     0.000980    0.000770
  FORCE total and by dimension    0.003443    0.000828
  Stress total and by dimension    1.289682    1.289583

 reached required accuracy - stopping structural energy minimisation

 total charge

# of ion       s       p       d       tot
    1        1.786   4.713   0.017   6.516
    2        1.786   4.713   0.017   6.516
    3        1.786   4.713   0.017   6.516
    4        1.786   4.713   0.017   6.516
    5        1.552   0.422   9.841  11.815
    6        1.552   0.422   9.841  11.815
    7        1.552   0.422   9.841  11.815
    8        1.552   0.422   9.841  11.815
    9        1.616   3.291   0.006   4.914
   10        1.616   3.291   0.006   4.914
   11        1.616   3.291   0.006   4.914
   12        1.616   3.291   0.006   4.914
   13        1.616   3.276   0.006   4.899
   14        1.615   3.301   0.006   4.921
   15        1.615   3.301   0.006   4.921
   16        1.616   3.276   0.006   4.899
   17        1.616   3.276   0.006   4.899
   18        1.615   3.301   0.006   4.921
   19        1.616   3.276   0.006   4.899
   20        1.615   3.301   0.006   4.921
tot         32.740  60.013  39.507 132.260