 vasp.5.4.4.18Apr17-6-g9f103f2a35 (build Jun 22 2020 09:27:21) complex

 INCAR:
 POTCAR:    PAW_PBE Cs_sv 08Apr2002
 POTCAR:    PAW_PBE Pb_d 06Sep2000
 POTCAR:    PAW_PBE Br 06Sep2000
 POTCAR:    PAW_PBE Cs_sv 08Apr2002
   VRHFIN =Cs: 5s5p6s

   TITEL  = PAW_PBE Cs_sv 08Apr2002
   POMASS =  132.900; ZVAL   =    9.000    mass and valenz
   ENMAX  =  220.318; ENMIN  =  165.238 eV

   TITEL  = PAW_PBE Pb_d 06Sep2000
   POMASS =  207.200; ZVAL   =   14.000    mass and valenz
   ENMAX  =  237.835; ENMIN  =  178.376 eV

   TITEL  = PAW_PBE Br 06Sep2000
   POMASS =   79.904; ZVAL   =    7.000    mass and valenz
   ENMAX  =  216.285; ENMIN  =  162.214 eV

 Optimization of the real space projectors (new method)

 maximal supplied QI-value         = 15.12
 optimisation between [QCUT,QGAM] = [  8.77, 17.69] = [ 21.53, 87.61] Ry
 Optimized for a Real-space Cutoff    1.85 Angstroem

   l    n(q)    QCUT    max X(q) W(low)/X(q) W(high)/X(q)  e(spline)
   0     10     8.768    25.322    0.81E-04    0.51E-04    0.48E-06
   0     10     8.768    99.187    0.78E-04    0.50E-04    0.47E-06
   1      9     8.768    11.761    0.21E-03    0.20E-03    0.37E-06
   1      9     8.768     8.275    0.24E-03    0.22E-03    0.41E-06
   2      9     8.768     3.829    0.23E-04    0.15E-03    0.18E-06
 Optimization of the real space projectors (new method)

[...]

   l    n(q)    QCUT    max X(q) W(low)/X(q) W(high)/X(q)  e(spline)
   2      7     8.768     3.846    0.48E-04    0.11E-03    0.11E-06
   2      7     8.768     8.593    0.20E-03    0.22E-04    0.24E-06
   0      8     8.768    20.082    0.68E-04    0.88E-04    0.41E-07
   0      8     8.768     8.597    0.89E-04    0.13E-03    0.59E-07
   1      8     8.768    33.223    0.15E-03    0.53E-04    0.87E-07
   1      8     8.768    15.899    0.14E-03    0.44E-04    0.78E-07
 Optimization of the real space projectors (new method)

 maximal supplied QI-value         = 17.95
 optimisation between [QCUT,QGAM] = [  8.80, 17.59] = [ 21.67, 86.68] Ry
 Optimized for a Real-space Cutoff    1.59 Angstroem

   l    n(q)    QCUT    max X(q) W(low)/X(q) W(high)/X(q)  e(spline)
   0      8     8.797   175.082    0.82E-04    0.14E-03    0.89E-07
   0      8     8.797   174.004    0.79E-04    0.14E-03    0.86E-07
   1      8     8.797    54.315    0.16E-03    0.14E-04    0.30E-06
   1      8     8.797    42.441    0.16E-03    0.14E-04    0.30E-06
   2      7     8.797     3.596    0.92E-04    0.15E-03    0.85E-07
  PAW_PBE Cs_sv 08Apr2002               :
  PAW_PBE Pb_d 06Sep2000                :
  PAW_PBE Br 06Sep2000                  :

 POSCAR: Cs7 Pb8 Br24
  positions in direct lattice

 METAGGA = SCAN     LMAXTAU =  6    LMIXTAU =  F

 VTST: version 3.2, (02/03/18)

 CHAIN: initializing optimizer

 OPT: Using VASP Conjugate-Gradient optimizer
 CHAIN: Read ICHAIN            0

 POSCAR: Cs7 Pb8 Br24
  positions in direct lattice

 ion  position               nearest neighbor table
   1  0.272  0.250  0.208-
   2  0.772  0.250  0.708-
   3  0.708  0.750  0.272-
   4  0.208  0.750  0.772-
   5  0.292  0.250  0.728-
   6  0.792  0.250  0.228-
   7  0.728  0.750  0.792-
   8  0.000  0.000  0.000-  18 2.99  20 2.99  29 3.00  35 3.00  32 3.01  30 3.01
   9  0.500  0.000  0.500-  19 2.99  21 2.99  28 3.00  34 3.00  33 3.01  31 3.01
  10  0.500  0.000  0.000-  16 2.99  22 2.99  30 3.00  32 3.00  28 3.01  34 3.01
  11  0.000  0.000  0.500-  17 2.99  23 2.99  31 3.00  33 3.00  29 3.01  35 3.01
  12  0.500  0.500  0.000-  16 2.99  22 2.99  24 3.00  36 3.00  26 3.01  38 3.01
  13  0.000  0.500  0.500-  17 2.99  23 2.99  25 3.00  37 3.00  27 3.01  39 3.01
  14  0.000  0.500  0.000-  18 2.99  20 2.99  27 3.00  39 3.00  36 3.01  24 3.01
  15  0.500  0.500  0.500-  19 2.99  21 2.99  26 3.00  38 3.00  37 3.01  25 3.01
  16  0.469  0.750  0.963-  10 2.99  12 2.99
  17  0.969  0.750  0.463-  11 2.99  13 2.99
  18  0.963  0.250  0.969-   8 2.99  14 2.99
  19  0.463  0.250  0.469-   9 2.99  15 2.99
  20  0.037  0.750  0.031-   8 2.99  14 2.99
  21  0.537  0.750  0.531-   9 2.99  15 2.99
  22  0.531  0.250  0.037-  10 2.99  12 2.99
  23  0.031  0.250  0.537-  11 2.99  13 2.99
  24  0.248  0.466  0.949-  12 3.00  14 3.01
  25  0.748  0.466  0.449-  13 3.00  15 3.01
  26  0.449  0.534  0.248-  15 3.00  12 3.01
  27  0.949  0.534  0.748-  14 3.00  13 3.01
  28  0.551  0.034  0.752-   9 3.00  10 3.01
  29  0.051  0.034  0.252-   8 3.00  11 3.01
  30  0.752  0.966  0.051-  10 3.00   8 3.01
  31  0.252  0.966  0.551-  11 3.00   9 3.01
  32  0.248  0.034  0.949-  10 3.00   8 3.01
  33  0.748  0.034  0.449-  11 3.00   9 3.01
  34  0.449  0.966  0.248-   9 3.00  10 3.01
  35  0.949  0.966  0.748-   8 3.00  11 3.01
  36  0.752  0.534  0.051-  12 3.00  14 3.01
  37  0.252  0.534  0.551-  13 3.00  15 3.01
  38  0.551  0.466  0.752-  15 3.00  12 3.01
  39  0.051  0.466  0.252-  14 3.00  13 3.01

IMPORTANT INFORMATION: All symmetrisations will be switched off!
NOSYMM: (Re-)initialisation of all symmetry stuff for point group C_1.

 KPOINTS: 1x1x1

Automatic generation of k-mesh.
Space group operators:
 irot       det(A)        alpha          n_x          n_y          n_z        tau_x        tau_y        tau_z
    1     1.000000     0.000000     1.000000     0.000000     0.000000     0.000000     0.000000     0.000000

 Subroutine IBZKPT returns following result:

 Found      8 irreducible k-points:

 Following reciprocal coordinates:
            Coordinates               Weight
  0.000000  0.000000  0.000000      1.000000
  0.500000  0.000000  0.000000      1.000000
  0.000000  0.500000  0.000000      1.000000
  0.500000  0.500000  0.000000      1.000000
  0.000000  0.000000  0.500000      1.000000
  0.500000  0.000000  0.500000      1.000000
  0.000000  0.500000  0.500000      1.000000
  0.500000  0.500000  0.500000      1.000000

 Following cartesian coordinates:
            Coordinates               Weight
  0.000000  0.000000  0.000000      1.000000
  0.029691  0.000000  0.030948      1.000000
  0.000000  0.042503  0.000000      1.000000
  0.029691  0.042503  0.030948      1.000000
 -0.029691  0.000000  0.030948      1.000000
  0.000000  0.000000  0.061897      1.000000
 -0.029691  0.042503  0.030948      1.000000
  0.000000  0.042503  0.061897      1.000000

 SYSTEM =  CsPbBr3 cubic bulk
 POSCAR =  Cs7 Pb8 Br24

 Startparameter for this run:
   NWRITE =      2    write-flag & timer
   PREC   = accura    normal or accurate (medium, high low for compatibility)
   ISTART =      0    job   : 0-new  1-cont  2-samecut
   ICHARG =      2    charge: 1-file 2-atom 10-const
   ISPIN  =      1    spin polarized calculation?
   LNONCOLLINEAR =      F non collinear calculations
   LSORBIT =      F    spin-orbit coupling
   INIWAV =      1    electr: 0-lowe 1-rand  2-diag
   LASPH  =      T    aspherical Exc in radial PAW
   METAGGA=      F    non-selfconsistent MetaGGA calc.

 Electronic Relaxation 1
   ENCUT  =  300.0 eV  22.05 Ry    4.70 a.u.  16.48 16.61 16.48*2*pi/ulx,y,z
   ENINI  =  300.0     initial cutoff
   ENAUG  =  503.9 eV  augmentation charge cutoff
   NELM   =    200;   NELMIN=  2; NELMDL= -5     # of ELM steps
   EDIFF  = 0.1E-05   stopping-criterion for ELM
   LREAL  =      T    real-space projection
   NLSPLINE    = F    spline interpolate recip. space projectors
   LCOMPAT=      F    compatible to vasp.4.4
   GGA_COMPAT  = T    GGA compatible to vasp.4.4-vasp.4.6
   LMAXPAW     = -100 max onsite density
   LMAXMIX     =    2 max onsite mixed and CHGCAR
   VOSKOWN=      0    Vosko Wilk Nusair interpolation
   ROPT   =   -0.00025  -0.00025  -0.00025
 Ionic relaxation
   EDIFFG = -.1E-01   stopping-criterion for IOM
   NSW    =    150    number of steps for IOM
   NBLOCK =      1;   KBLOCK =    150    inner block; outer block
   IBRION =      2    ionic relax: 0-MD 1-quasi-New 2-CG
   NFREE  =      1    steps in history (QN), initial steepest desc. (CG)
   ISIF   =      2    stress and relaxation
   IWAVPR =     11    prediction:  0-non 1-charg 2-wave 3-comb
   ISYM   =      0    0-nonsym 1-usesym 2-fastsym
   LCORR  =      T    Harris-Foulkes like correction to forces

   POTIM  = 0.5000    time-step for ionic-motion
   TEIN   =    0.0    initial temperature
   TEBEG  =    0.0;   TEEND  =   0.0 temperature during run
   SMASS  =  -3.00    Nose mass-parameter (am)
   estimated Nose-frequenzy (Omega)   =  0.10E-29 period in steps =****** mass=  -0.311E-26a.u.
   SCALEE = 1.0000    scale energy and forces
   NPACO  =    256;   APACO  = 16.0  distance and # of slots for P.C.
   PSTRESS=    0.0 pullay stress

  Mass of Ions in am
   POMASS = 132.90207.20 79.90
  Ionic Valenz
   ZVAL   =   9.00 14.00  7.00
  Atomic Wigner-Seitz radii
  virtual crystal weights
   VCA    =   1.00  1.00  1.00
   NELECT =     344.0000    total number of electrons
   NUPDOWN=       0.0000    fix difference up-down

 DOS related values:
   EMIN   =  10.00;   EMAX   =-10.00  energy-range for DOS
   EFERMI =   0.00
   ISMEAR =     0;   SIGMA  =   0.01  broadening in eV -4-tet -1-fermi 0-gaus

 Electronic relaxation 2 (details)
   IALGO  =     38    algorithm
   LDIAG  =      T    sub-space diagonalisation (order eigenvalues)
   LSUBROT=      F    optimize rotation matrix (better conditioning)
   TURBO    =      0    0=normal 1=particle mesh
   IRESTART =      0    0=no restart 2=restart with 2 vectors
   NREBOOT  =      0    no. of reboots
   NMIN     =      0    reboot dimension
   EREF     =   0.00    reference energy to select bands
   IMIX   =      4    mixing-type and parameters
     AMIX     =   0.40;   BMIX     =  1.00
     AMIX_MAG =   1.60;   BMIX_MAG =  1.00
     AMIN     =   0.10
     WC   =   100.;   INIMIX=   1;  MIXPRE=   1;  MAXMIX= -45

 Intra band minimization:
   WEIMIN = 0.0010     energy-eigenvalue tresh-hold
   EBREAK =  0.12E-08  absolut break condition
   DEPER  =   0.30     relativ break condition

   TIME   =   0.40     timestep for ELM

  volume/ion in A,a.u.               =      41.03       276.90
  Fermi-wavevector in a.u.,A,eV,Ry     =   0.980685  1.853227 13.085320  0.961744
  Thomas-Fermi vector in A             =   2.111635

 Write flags
   LWAVE        =      F    write WAVECAR
   LDOWNSAMPLE  =      F    k-point downsampling of WAVECAR
   LCHARG       =      F    write CHGCAR
   LVTOT        =      F    write LOCPOT, total local potential
   LVHAR        =      T    write LOCPOT, Hartree potential only
   LELF         =      F    write electronic localiz. function (ELF)
   LORBIT       =     10    0 simple, 1 ext, 2 COOP (PROOUT), +10 PAW based schemes

 Dipole corrections
   LMONO  =      F    monopole corrections only (constant potential shift)
   LDIPOL =      F    correct potential (dipole corrections)
   IDIPOL =      0    1-x, 2-y, 3-z, 4-all directions
   EPSILON=  1.0000000 bulk dielectric constant

 Exchange correlation treatment:
   GGA     =    --    GGA type
   VOSKOWN=      0    Vosko Wilk Nusair interpolation
   LHFCALC =     F    Hartree Fock is set to
   LHFONE  =     F    Hartree Fock one center treatment
   AEXX    =    0.0000 exact exchange contribution

 Linear response parameters
   LEPSILON=     F    determine dielectric tensor
[...]
      11-101.8777      12-101.9021      13-101.8777      14-101.8856      15-101.8997
      16 -69.2281      17 -69.0929      18 -69.1480      19 -69.2152      20 -69.0825
      21 -69.2169      22 -69.2270      23 -69.1166      24 -69.2164      25 -69.1479
      26 -69.0823      27 -69.1238      28 -69.1380      29 -69.1409      30 -69.2190
      31 -69.1588      32 -69.2167      33 -69.1479      34 -69.0823      35 -69.1239
      36 -69.2192      37 -69.1588      38 -69.1380      39 -69.1411

 E-fermi :   0.2740     XC(G=0):  -7.9308     alpha+bet : -6.8224

[...]

 k-point     8 :       0.5000    0.5000    0.5000
  band No.  band energies     occupation
      1     -21.0570      2.00000
      2     -21.0477      2.00000
      3     -21.0351      2.00000
      4     -20.9841      2.00000
      5     -20.9630      2.00000
      6     -20.9477      2.00000
      7     -20.9230      2.00000
      8     -16.6797      2.00000
      9     -16.6766      2.00000
     10     -16.6712      2.00000
     11     -16.6683      2.00000
     12     -16.6683      2.00000
     13     -16.6659      2.00000
     14     -16.6603      2.00000
     15     -16.6600      2.00000
     16     -16.6591      2.00000
     17     -16.6583      2.00000
     18     -16.6524      2.00000
     19     -16.6509      2.00000
     20     -16.6444      2.00000
     21     -16.6409      2.00000
     22     -16.6394      2.00000
     23     -16.6391      2.00000
     24     -16.5679      2.00000
     25     -16.5678      2.00000
     26     -16.5647      2.00000
     27     -16.5645      2.00000
     28     -16.5625      2.00000
     29     -16.5624      2.00000
     30     -16.5594      2.00000
     31     -16.5592      2.00000
     32     -16.5563      2.00000
     33     -16.5563      2.00000
     34     -16.5508      2.00000
     35     -16.5508      2.00000
     36     -16.5495      2.00000
     37     -16.5489      2.00000
     38     -16.5470      2.00000
     39     -16.5468      2.00000
     40     -16.5427      2.00000
     41     -16.5423      2.00000
     42     -16.5380      2.00000
     43     -16.5377      2.00000
     44     -16.5337      2.00000
     45     -16.5334      2.00000
     46     -16.5286      2.00000
     47     -16.5282      2.00000
     48     -14.4045      2.00000
     49     -14.4039      2.00000
     50     -14.3817      2.00000
     51     -14.3708      2.00000
     52     -14.3658      2.00000
     53     -14.3576      2.00000
     54     -14.3481      2.00000
     55     -14.3222      2.00000
     56     -14.1208      2.00000
     57     -14.1205      2.00000
     58     -14.0961      2.00000
     59     -14.0930      2.00000
     60     -14.0831      2.00000
[...]
    194       4.6102      0.00000
    195       4.6690      0.00000
    196       4.7186      0.00000
    197       6.0019      0.00000
    198       6.1352      0.00000
    199       6.1485      0.00000
    200       6.1721      0.00000
    201       6.2057      0.00000
    202       6.2386      0.00000
    203       6.2709      0.00000
    204       6.3056      0.00000
    205       6.3368      0.00000
    206       6.3593      0.00000
    207       6.4010      0.00000
    208       6.4123      0.00000

 soft charge-density along one line, spin component           1
         0         1         2         3         4         5         6         7         8         9
 total charge-density along one line

------------------------ aborting loop because EDIFF is reached ----------------------------------------

[...]

  FORCE on cell =-STRESS in cart. coord.  units (eV):
  Direction    XX          YY          ZZ          XY          YZ          ZX
  Alpha Z   835.99855   835.99855   835.99855
  Ewald   -5826.95538 -5726.10249 -5951.48026    -0.00075    -0.00056   -60.94410
  Hartree  2569.15887  2604.59719  2482.98000    -0.00094    -0.00046   -44.33179
  E(xc)   -1446.68258 -1446.58656 -1446.72179     0.00000     0.00001    -0.05247
  Local   -3130.49050 -3265.45985 -2920.52606     0.00174     0.00095   105.40048
  n-local  1793.40828  1794.05450  1792.72875     0.00006    -0.00000    -0.56174
  augment   824.79209   824.66077   824.20408     0.00000    -0.00005    -0.17415
  Kinetic  4384.62494  4383.45679  4386.79470    -0.00021     0.00010     0.63463
  Fock        0.00000     0.00000     0.00000     0.00000     0.00000     0.00000
  Total       3.85426     4.61890     3.97797    -0.00008    -0.00002    -0.02915
  in kB       3.85885     4.62440     3.98270    -0.00008    -0.00002    -0.02918

 VOLUME and BASIS-vectors are now :
  energy-cutoff  :      300.00
  volume of cell :     1600.27
      direct lattice vectors                 reciprocal lattice vectors
     8.420018000  0.000000000  8.077981000     0.059382296 -0.000000000  0.061896655
     0.000000000 11.763808000  0.000000000     0.000000000  0.085006488 -0.000000000
    -8.420018000  0.000000000  8.077981000    -0.059382296  0.000000000  0.061896655

  length of vectors
    11.668353789 11.763808000 11.668353789     0.085775596  0.085006488  0.085775596

 FORCES acting on ions
    electron-ion (+dipol)            ewald-force                    non-local-force                 convergence-correction
   0.334E+02 -.218E-02 -.119E+02   -.334E+02 0.218E-02 0.119E+02   -.412E-01 0.196E-05 -.305E-02   -.441E-03 0.773E-05 0.129E-02
   0.263E+02 0.994E-04 -.118E+02   -.262E+02 -.641E-04 0.120E+02   -.126E+00 -.243E-04 -.113E+00   0.600E-04 -.723E-06 -.632E-03
   -.281E+02 -.307E-02 -.487E+01   0.280E+02 0.373E-02 0.497E+01   0.144E+00 -.314E-03 -.101E+00   0.511E-03 -.331E-03 -.731E-03
   -.341E+02 0.427E-02 -.158E+02   0.340E+02 -.438E-02 0.158E+02   0.921E-01 0.387E-04 -.328E-01   0.169E-03 0.261E-04 -.420E-04
   0.286E+02 -.362E-02 0.131E+02   -.285E+02 0.372E-02 -.133E+02   -.105E+00 -.377E-04 0.159E+00   0.195E-03 -.216E-04 0.121E-05
   0.301E+02 0.305E-02 0.113E+02   -.298E+02 -.319E-02 -.112E+02   -.241E+00 0.430E-04 -.117E+00   -.872E-03 0.536E-04 -.676E-03
   -.217E+02 -.172E-02 0.170E+02   0.217E+02 0.173E-02 -.170E+02   0.359E-01 0.850E-05 0.337E-01   -.895E-03 -.857E-05 -.106E-03
   0.101E+01 0.417E+02 -.641E+02   -.105E+01 -.418E+02 0.640E+02   0.491E-01 0.114E+00 0.951E-01   -.497E-03 -.469E-03 0.138E-02
   0.561E+01 0.518E+02 0.680E+02   -.547E+01 -.518E+02 -.683E+02   -.138E+00 -.182E-01 0.256E+00   0.117E-02 0.851E-04 -.135E-02
   0.469E+02 0.347E+02 0.398E+01   -.467E+02 -.345E+02 -.457E+01   -.188E+00 -.217E+00 0.591E+00   -.176E-02 -.617E-04 0.952E-03
   -.790E+02 0.641E+02 0.503E+01   0.790E+02 -.643E+02 -.535E+01   0.618E-01 0.149E+00 0.316E+00   0.150E-02 -.437E-03 -.413E-03
   0.469E+02 -.347E+02 0.399E+01   -.467E+02 0.345E+02 -.458E+01   -.186E+00 0.219E+00 0.592E+00   -.172E-02 0.916E-04 0.107E-02
   -.790E+02 -.642E+02 0.502E+01   0.790E+02 0.643E+02 -.534E+01   0.618E-01 -.150E+00 0.316E+00   0.153E-02 0.446E-03 -.500E-03
   0.997E+00 -.417E+02 -.641E+02   -.104E+01 0.418E+02 0.640E+02   0.494E-01 -.115E+00 0.957E-01   -.635E-03 0.477E-03 0.138E-02
   0.561E+01 -.518E+02 0.680E+02   -.548E+01 0.518E+02 -.683E+02   -.138E+00 0.185E-01 0.256E+00   0.125E-02 -.648E-04 -.136E-02
   0.350E+02 -.872E-02 0.407E+02   -.349E+02 0.889E-02 -.411E+02   -.603E-01 -.857E-04 0.343E+00   -.338E-03 -.872E-05 -.347E-03
   -.482E+02 0.183E-02 0.259E+02   0.480E+02 -.184E-02 -.262E+02   0.163E+00 0.108E-04 0.231E+00   0.797E-03 -.194E-04 0.509E-03
   -.793E+01 0.339E-02 0.322E+02   0.795E+01 -.345E-02 -.326E+02   -.101E-01 0.343E-04 0.362E+00   -.353E-03 0.746E-05 -.567E-03
   -.123E+02 -.187E-02 0.461E+02   0.124E+02 0.188E-02 -.462E+02   -.995E-01 -.303E-04 0.172E+00   0.751E-03 0.102E-04 -.680E-03
   0.203E+02 0.277E-02 -.979E+02   -.205E+02 -.279E-02 0.982E+02   0.131E+00 0.446E-04 -.308E+00   -.703E-03 -.114E-04 -.273E-03
   0.159E+02 -.140E-02 -.142E+01   -.160E+02 0.144E-02 0.182E+01   0.108E+00 -.101E-04 -.377E+00   0.646E-03 -.176E-04 -.676E-04
   -.235E+01 -.670E-02 -.305E+02   0.250E+01 0.683E-02 0.307E+02   -.130E+00 -.108E-03 -.183E+00   -.746E-03 0.137E-04 0.502E-03
   -.163E+02 0.251E-03 -.363E+02   0.163E+02 -.268E-03 0.366E+02   -.939E-02 0.230E-04 -.299E+00   0.792E-03 -.165E-05 0.242E-03
   -.259E+01 -.319E+01 0.793E+01   0.282E+01 0.299E+01 -.812E+01   -.222E+00 0.181E+00 0.185E+00   -.465E-03 0.697E-04 0.366E-03
   -.258E+02 0.421E+01 0.263E+02   0.260E+02 -.437E+01 -.264E+02   -.167E+00 0.158E+00 0.162E+00   0.260E-03 -.477E-05 -.965E-03
   0.638E+02 -.649E+02 0.513E+02   -.642E+02 0.652E+02 -.517E+02   0.365E+00 -.329E+00 0.330E+00   0.130E-03 0.154E-04 -.415E-04
   0.105E+02 -.195E+02 0.202E+02   -.107E+02 0.196E+02 -.204E+02   0.150E+00 -.105E+00 0.233E+00   0.233E-03 -.255E-03 0.139E-03
   -.157E+02 -.979E+01 -.231E+02   0.159E+02 0.997E+01 0.234E+02   -.168E+00 -.173E+00 -.241E+00   0.128E-03 -.643E-04 -.599E-04
   -.348E+02 0.212E+02 -.484E+02   0.350E+02 -.208E+02 0.486E+02   -.149E+00 -.312E+00 -.182E+00   0.550E-03 -.644E-03 0.514E-03
   0.241E+02 0.289E+02 -.377E+02   -.243E+02 -.291E+02 0.380E+02   0.152E+00 0.184E+00 -.284E+00   -.117E-02 -.242E-03 0.488E-03
   -.323E+01 0.512E+02 0.167E+01   0.297E+01 -.513E+02 -.133E+01   0.254E+00 0.119E+00 -.309E+00   0.641E-03 -.414E-04 -.389E-03
   -.258E+01 0.319E+01 0.793E+01   0.282E+01 -.299E+01 -.813E+01   -.222E+00 -.181E+00 0.185E+00   -.462E-03 -.783E-04 0.346E-03
   -.258E+02 -.421E+01 0.263E+02   0.260E+02 0.436E+01 -.264E+02   -.167E+00 -.158E+00 0.162E+00   0.222E-03 0.528E-04 -.912E-03
   0.638E+02 0.649E+02 0.513E+02   -.642E+02 -.652E+02 -.517E+02   0.365E+00 0.329E+00 0.330E+00   0.926E-04 -.391E-05 -.887E-04
   0.105E+02 0.195E+02 0.202E+02   -.107E+02 -.196E+02 -.204E+02   0.150E+00 0.105E+00 0.233E+00   0.247E-03 0.259E-03 0.153E-03
   0.241E+02 -.289E+02 -.377E+02   -.243E+02 0.291E+02 0.380E+02   0.152E+00 -.184E+00 -.284E+00   -.123E-02 0.257E-03 0.528E-03
   -.323E+01 -.512E+02 0.167E+01   0.297E+01 0.513E+02 -.134E+01   0.254E+00 -.118E+00 -.309E+00   0.665E-03 0.426E-04 -.402E-03
   -.157E+02 0.979E+01 -.231E+02   0.159E+02 -.997E+01 0.234E+02   -.168E+00 0.173E+00 -.241E+00   0.134E-03 0.655E-04 -.484E-04
   -.348E+02 -.212E+02 -.484E+02   0.350E+02 0.208E+02 0.486E+02   -.149E+00 0.312E+00 -.182E+00   0.527E-03 0.669E-03 0.495E-03
   0.247E+00 -.408E-03 -.204E+01   0.568E-13 -.107E-13 0.284E-13   -.147E+00 0.611E-03 0.207E+01   0.913E-03 -.137E-03 -.296E-03

 POSITION                                       TOTAL-FORCE (eV/Angst)
      0.56269      2.94095      3.97262        -0.006825      0.000013      0.003001
      0.59952      2.94095     11.87722        -0.001545      0.000007     -0.001061
      3.62204      8.82284      7.96074         0.001387      0.000028     -0.008235
     -4.77050      8.82287      7.85807        -0.002494     -0.000057     -0.007079
     -3.65461      2.94094      8.27288         0.003630      0.000047      0.000326
      4.67011      2.94096      8.16534         0.000025     -0.000049     -0.005435
     -0.44127      8.82286     12.41401        -0.006368      0.000005     -0.005706
     -0.00244      0.01915     -0.00014         0.002065      0.000871     -0.001649
     -0.00268     -0.04223      8.06674        -0.003757     -0.003150     -0.000912
      4.19755     -0.03185      4.04054         0.001800      0.001377      0.002110
     -4.10572     -0.01201      4.03966         0.001076      0.002947      0.001147
      4.19763      5.91380      4.04063         0.001466     -0.001551      0.001677
     -4.10569      5.89390      4.03964         0.000882     -0.002887      0.001366
     -0.00246      5.86272     -0.00010         0.002557     -0.000865     -0.001734
     -0.00268      5.92418      8.06675        -0.003832      0.003208     -0.000952
     -3.98829      8.82283     11.46832        -0.002114      0.000038     -0.006761
      4.12190      8.82286     11.61816        -0.000501     -0.000016      0.002617
     -0.12611      2.94095     15.44211        -0.001971     -0.000016      0.005362
     -0.00226      2.94097      7.61407         0.002142      0.000001     -0.000685
      0.03453      8.82285      0.31527        -0.001096      0.000005     -0.001196
      0.04255      8.82287      8.79675         0.006224      0.000018      0.004981
      4.18784      2.94093      4.52252        -0.000189      0.000003      0.002006
     -4.27973      2.94096      4.62325        -0.003399      0.000008      0.002126
     -5.92367      5.43149      9.67121        -0.002374      0.000151     -0.000641
      2.51340      5.47730      9.69484         0.001742      0.000285     -0.000544
      1.72884      6.28489      5.64986         0.001406      0.000743      0.003215
      1.73459      6.20760     13.70812         0.002463      0.000226      0.000416
     -1.66870      0.42533     10.53900         0.001114      0.001278      0.005399
     -1.74788      0.66988      2.33500         0.002536     -0.005551     -0.002010
      5.87342     11.33366      6.48621        -0.002062      0.001637      0.000158
     -2.61699     11.50202      6.61306         0.000546      0.002339      0.001329
     -5.92370      0.45041      9.67122        -0.002301     -0.000119     -0.000657
      2.51340      0.40460      9.69485         0.001714     -0.000284     -0.000555
      1.72884     11.36081      5.64986         0.001413     -0.000730      0.003184
      1.73459     11.43812     13.70813         0.002451     -0.000243      0.000392
      5.87343      6.31204      6.48619        -0.002030     -0.001601      0.000276
     -2.61699      6.14369      6.61306         0.000538     -0.002343      0.001301
     -1.66870      5.45657     10.53900         0.001133     -0.001279      0.005409
     -1.74788      5.21202      2.33500         0.002548      0.005507     -0.001985
    total drift:                                0.101475      0.000065      0.029505

  FREE ENERGIE OF THE ION-ELECTRON SYSTEM (eV)
  free  energy   TOTEN  =     -1387.36408494 eV

  energy  without entropy=    -1387.36408494  energy(sigma->0) =    -1387.36408494

 d Force = 0.4159828E-03[ 0.244E-03, 0.588E-03]  d Energy = 0.4233782E-03-0.740E-05
 d Force =-0.9874707E+00[-0.999E+00,-0.976E+00]  d Ewald  =-0.9874640E+00-0.672E-05

 stress matrix after NEB project (eV)
      3.85426     -0.00008     -0.02915
     -0.00008      4.61890     -0.00002
     -0.02916     -0.00002      3.97797
  FORCES: max atom, RMS     0.008551    0.004590
  FORCE total and by dimension    0.028668    0.008235
  Stress total and by dimension    7.212178    4.618900
 Conjugate gradient step on ions:
 trial-energy change:   -0.000423  1 .order   -0.000416   -0.000588   -0.000244
  (g-gl).g = 0.741E-04      g.g   = 0.923E-04  gl.gl    = 0.145E-03
 g(Force)  = 0.923E-04   g(Stress)= 0.000E+00 ortho     = 0.646E-05
 gamma     =   0.51086
 trial     =   6.15039
 opt step  =   9.76513  (harmonic =  10.50465) maximal distance =0.01077797
 next E    = -1387.364158   (d E  =  -0.00050)

 reached required accuracy - stopping structural energy minimisation

 total charge

# of ion       s       p       d       tot
    1        1.786   4.721   0.020   6.528
    2        1.787   4.722   0.022   6.530
    3        1.786   4.721   0.019   6.526
    4        1.786   4.721   0.019   6.526
    5        1.787   4.722   0.021   6.530
    6        1.787   4.721   0.021   6.529
    7        1.786   4.721   0.020   6.528
    8        1.555   0.419   9.834  11.808
    9        1.555   0.418   9.833  11.806
   10        1.555   0.421   9.834  11.810
   11        1.555   0.416   9.833  11.804
   12        1.555   0.421   9.834  11.810
   13        1.555   0.416   9.833  11.804
   14        1.555   0.419   9.834  11.808
   15        1.555   0.418   9.833  11.806
   16        1.614   3.289   0.006   4.910
   17        1.615   3.284   0.006   4.905
   18        1.614   3.290   0.006   4.910
   19        1.614   3.291   0.006   4.911
   20        1.615   3.285   0.007   4.906
   21        1.615   3.290   0.006   4.910
   22        1.614   3.291   0.006   4.911
   23        1.614   3.291   0.006   4.911
   24        1.614   3.288   0.006   4.908
   25        1.614   3.289   0.006   4.908
   26        1.615   3.279   0.006   4.900
   27        1.614   3.289   0.006   4.909
   28        1.614   3.288   0.006   4.908
   29        1.615   3.288   0.006   4.909
   30        1.614   3.288   0.006   4.909
   31        1.615   3.288   0.006   4.908
   32        1.614   3.288   0.006   4.908
   33        1.614   3.289   0.006   4.908
   34        1.615   3.279   0.006   4.900
   35        1.614   3.289   0.006   4.909
   36        1.614   3.288   0.006   4.909
   37        1.615   3.288   0.006   4.908
   38        1.614   3.288   0.006   4.908
   39        1.615   3.288   0.006   4.909
tot         63.685 115.304  78.954 257.943