 vasp.5.4.4.18Apr17-6-g9f103f2a35 (build Jun 22 2020 09:36:46) gamma-only

 INCAR:
 POTCAR:    PAW_PBE Cs_sv 08Apr2002
 POTCAR:    PAW_PBE Pb_d 06Sep2000
 POTCAR:    PAW_PBE Br 06Sep2000
 POTCAR:    PAW_PBE Cs_sv 08Apr2002
 POTCAR:    PAW_PBE Pb_d 06Sep2000
 POTCAR:    PAW_PBE Br 06Sep2000
 POTCAR:    PAW_PBE Cs_sv 08Apr2002
   VRHFIN =Cs: 5s5p6s

   TITEL  = PAW_PBE Cs_sv 08Apr2002
   POMASS =  132.900; ZVAL   =    9.000    mass and valenz
   ENMAX  =  220.318; ENMIN  =  165.238 eV

   TITEL  = PAW_PBE Pb_d 06Sep2000
   POMASS =  207.200; ZVAL   =   14.000    mass and valenz
   ENMAX  =  237.835; ENMIN  =  178.376 eV

   TITEL  = PAW_PBE Br 06Sep2000
   POMASS =   79.904; ZVAL   =    7.000    mass and valenz
   ENMAX  =  216.285; ENMIN  =  162.214 eV

   TITEL  = PAW_PBE Cs_sv 08Apr2002
   POMASS =  132.900; ZVAL   =    9.000    mass and valenz
   ENMAX  =  220.318; ENMIN  =  165.238 eV

   TITEL  = PAW_PBE Pb_d 06Sep2000
   POMASS =  207.200; ZVAL   =   14.000    mass and valenz
   ENMAX  =  237.835; ENMIN  =  178.376 eV

   TITEL  = PAW_PBE Br 06Sep2000
   POMASS =   79.904; ZVAL   =    7.000    mass and valenz
   ENMAX  =  216.285; ENMIN  =  162.214 eV

 Optimization of the real space projectors (new method)

 maximal supplied QI-value         = 15.12
 optimisation between [QCUT,QGAM] = [  8.77, 17.69] = [ 21.53, 87.61] Ry
 Optimized for a Real-space Cutoff    1.85 Angstroem

   l    n(q)    QCUT    max X(q) W(low)/X(q) W(high)/X(q)  e(spline)
   0     10     8.768    25.322    0.81E-04    0.51E-04    0.48E-06
   0     10     8.768    99.187    0.78E-04    0.50E-04    0.47E-06
   1      9     8.768    11.761    0.21E-03    0.20E-03    0.37E-06
   1      9     8.768     8.275    0.24E-03    0.22E-03    0.41E-06
   2      9     8.768     3.829    0.23E-04    0.15E-03    0.18E-06
 Optimization of the real space projectors (new method)

[...]

   l    n(q)    QCUT    max X(q) W(low)/X(q) W(high)/X(q)  e(spline)
   2      7     8.768     3.846    0.48E-04    0.11E-03    0.11E-06
   2      7     8.768     8.593    0.20E-03    0.22E-04    0.24E-06
   0      8     8.768    20.082    0.68E-04    0.88E-04    0.41E-07
   0      8     8.768     8.597    0.89E-04    0.13E-03    0.59E-07
   1      8     8.768    33.223    0.15E-03    0.53E-04    0.87E-07
   1      8     8.768    15.899    0.14E-03    0.44E-04    0.78E-07
 Optimization of the real space projectors (new method)

 maximal supplied QI-value         = 17.95
 optimisation between [QCUT,QGAM] = [  8.80, 17.59] = [ 21.67, 86.68] Ry
 Optimized for a Real-space Cutoff    1.59 Angstroem

   l    n(q)    QCUT    max X(q) W(low)/X(q) W(high)/X(q)  e(spline)
   0      8     8.797   175.082    0.82E-04    0.14E-03    0.89E-07
   0      8     8.797   174.004    0.79E-04    0.14E-03    0.86E-07
   1      8     8.797    54.315    0.16E-03    0.14E-04    0.30E-06
   1      8     8.797    42.441    0.16E-03    0.14E-04    0.30E-06
   2      7     8.797     3.596    0.92E-04    0.15E-03    0.85E-07
  PAW_PBE Cs_sv 08Apr2002               :
  PAW_PBE Pb_d 06Sep2000                :
  PAW_PBE Br 06Sep2000                  :
  PAW_PBE Cs_sv 08Apr2002               :
  PAW_PBE Pb_d 06Sep2000                :
  PAW_PBE Br 06Sep2000                  :

 POSCAR: Cs64 Pb64 Br191
  positions in direct lattice

 METAGGA = SCAN     LMAXTAU =  6    LMIXTAU =  F

 VTST: version 3.2, (02/03/18)

 CHAIN: initializing optimizer

 OPT: Using VASP Conjugate-Gradient optimizer
 CHAIN: Read ICHAIN            0

 POSCAR: Cs64 Pb64 Br191
  positions in direct lattice

 ion  position               nearest neighbor table
   1  0.886  0.875  0.354-
   2  0.136  0.875  0.604-
   3  0.886  0.375  0.354-
   4  0.136  0.375  0.604-
   5  0.886  0.875  0.854-
   6  0.136  0.875  0.103-
   7  0.384  0.875  0.351-
   8  0.637  0.875  0.605-
   9  0.886  0.375  0.854-
  10  0.136  0.375  0.104-
  11  0.386  0.875  0.854-
  12  0.636  0.875  0.103-
  13  0.386  0.375  0.854-
  14  0.636  0.375  0.103-
  15  0.104  0.125  0.386-
  16  0.353  0.125  0.636-
  17  0.102  0.625  0.386-
  18  0.104  0.125  0.886-
  19  0.354  0.125  0.136-
  20  0.604  0.125  0.385-
  21  0.854  0.125  0.636-
  22  0.104  0.625  0.886-
  23  0.354  0.625  0.135-
  24  0.854  0.625  0.636-
  25  0.604  0.125  0.886-
  26  0.854  0.125  0.136-
  27  0.604  0.625  0.888-
  28  0.853  0.625  0.137-
  29  0.897  0.875  0.114-
  30  0.146  0.875  0.364-
  31  0.897  0.375  0.114-
  32  0.146  0.375  0.364-
  33  0.897  0.875  0.614-
  34  0.146  0.875  0.864-
  35  0.396  0.875  0.114-
  36  0.648  0.875  0.364-
  37  0.897  0.375  0.614-
  38  0.147  0.375  0.864-
  39  0.396  0.375  0.114-
  40  0.396  0.875  0.615-
  41  0.646  0.875  0.864-
  42  0.646  0.375  0.864-
  43  0.114  0.125  0.146-
  44  0.364  0.125  0.396-
  45  0.114  0.625  0.147-
  46  0.114  0.125  0.646-
  47  0.364  0.125  0.897-
  48  0.614  0.125  0.146-
  49  0.864  0.125  0.396-
  50  0.114  0.625  0.646-
  51  0.364  0.625  0.897-
  52  0.614  0.625  0.146-
  53  0.864  0.625  0.396-
  54  0.615  0.125  0.647-
  55  0.864  0.125  0.897-
  56  0.864  0.625  0.896-
  57  0.750  0.750  0.250- 132 2.99 225 2.99 252 3.00 143 3.00 310 3.00 203 3.02
  58  0.000  0.750  0.500- 133 2.99 144 3.00 200 3.01 241 3.01 220 3.01 226 3.02
  59  0.750  0.250  0.250- 141 2.99 136 3.00 227 3.00 250 3.00 216 3.01 207 3.01
  60  0.000  0.250  0.500- 142 2.99 137 3.00 204 3.01 239 3.01 228 3.01 217 3.01
  61  0.750  0.751  0.750- 138 2.98 229 2.99 209 2.99 149 3.00 315 3.02 223 3.03
  62  0.000  0.750  0.000- 150 2.99 139 3.00 230 3.01 224 3.01 197 3.01 247 3.01
  63  0.249  0.751  0.249- 127 2.99 301 2.99 248 2.99 213 3.00 231 3.01 198 3.02
  64  0.499  0.755  0.499- 128 2.80 314 2.98 232 2.99 311 2.99 208 2.99
  65  0.750  0.250  0.750- 145 2.99 299 3.00 210 3.00 233 3.00 221 3.01 246 3.02
  66  0.000  0.250  0.000- 146 3.00 140 3.00 234 3.01 222 3.01 199 3.01 243 3.01
  67  0.250  0.750  0.750- 130 2.99 218 3.00 201 3.00 153 3.00 236 3.02 242 3.02
  68  0.500  0.750  0.000- 131 2.99 154 3.00 219 3.00 237 3.00 251 3.02 202 3.02
  69  0.250  0.250  0.750- 151 2.99 214 3.00 134 3.00 205 3.00 240 3.01 312 3.01
  70  0.500  0.250  0.000- 152 2.99 135 3.00 238 3.00 215 3.00 206 3.01 249 3.01
  71  0.000  0.750  0.250- 155 2.99 115 3.00 197 3.00 213 3.01 225 3.01 241 3.01
  72  0.250  0.750  0.500- 226 2.99 116 3.00 156 3.00 242 3.00 198 3.01 311 3.06
  73  1.000  0.250  0.250- 113 2.99 157 3.00 199 3.00 227 3.01 239 3.01 211 3.01
  74  0.000  0.750  0.750- 158 2.99 121 3.00 247 3.00 218 3.00 200 3.01 229 3.02
  75  0.250  0.750  1.000- 159 2.99 122 3.00 230 3.00 248 3.01 201 3.01 219 3.01
  76  0.500  0.750  0.250- 202 2.98 160 3.00 123 3.00 310 3.00 231 3.00 314 3.07
  77  0.751  0.750  0.500- 220 2.99 161 2.99 203 3.00 315 3.00 298 3.00 232 3.04
  78  1.000  0.250  0.750- 117 2.99 162 3.00 243 3.00 214 3.01 204 3.01 233 3.01
  79  0.250  0.250  1.000- 118 2.99 163 3.00 234 3.00 205 3.01 244 3.01 215 3.01
  80  0.750  0.250  0.500- 120 2.99 217 2.99 164 3.00 207 3.00 246 3.00 313 3.03
  81  0.500  0.750  0.750- 251 2.99 165 2.99 236 3.00 297 3.00 223 3.01 208 3.05
  82  0.750  0.750  0.000- 166 2.99 126 3.00 224 3.00 252 3.00 209 3.01 237 3.01
  83  0.500  0.250  0.750- 124 2.99 249 2.99 312 3.00 167 3.00 221 3.01 308 3.03
  84  0.750  0.250  0.000- 125 2.99 168 3.00 222 3.00 210 3.01 250 3.01 238 3.01
  85  1.000  0.000  0.250- 113 2.99 155 3.00 267 3.00 169 3.01 183 3.01 253 3.01
  86  0.250  1.000  0.500- 170 3.00 114 3.00 184 3.00 268 3.00 156 3.01 254 3.03
  87  0.000  0.500  0.250- 157 2.99 115 3.00 269 3.00 255 3.01 171 3.01 185 3.01
  88  0.000  0.000  0.750- 117 2.99 158 3.00 187 3.00 256 3.01 270 3.01 173 3.01
  89  0.250  0.000  1.000- 118 2.99 159 3.00 174 3.00 271 3.01 188 3.01 257 3.01
  90  0.500  1.000  0.250- 272 3.00 119 3.00 258 3.00 175 3.01 160 3.01 189 3.03
  91  0.750  0.000  0.500- 120 2.99 259 3.00 161 3.00 273 3.00 190 3.00 176 3.03
  92  0.000  0.500  0.750- 162 2.99 121 3.00 191 3.00 260 3.00 274 3.01 177 3.01
  93  0.250  0.500  1.000- 163 2.99 122 3.00 178 3.00 192 3.01 275 3.01 261 3.01
  94  0.751  0.500  0.500- 164 2.99 262 2.99 277 3.00 298 3.00 307 3.00 305 3.04
  95  0.500  0.000  0.750- 124 2.99 193 2.99 165 3.00 263 3.01 180 3.01 278 3.03
  96  0.750  0.000  0.000- 125 2.99 166 3.00 264 3.00 194 3.01 279 3.01 181 3.01
  97  0.500  0.500  0.750- 167 2.99 195 2.99 304 3.00 297 3.00 265 3.01 318 3.05
  98  0.750  0.500  0.000- 168 2.99 126 3.00 266 3.00 196 3.00 280 3.01 182 3.02
  99  0.750  0.000  0.250- 141 2.99 132 3.00 169 3.00 194 3.00 258 3.01 273 3.01
 100  0.000  0.000  0.500- 142 2.99 133 3.00 183 3.01 270 3.01 259 3.01 170 3.01
 101  0.750  0.499  0.250- 136 2.99 171 2.99 196 3.00 143 3.00 316 3.00 277 3.02
 102  0.000  0.500  0.500- 137 2.99 144 3.00 274 3.00 185 3.01 262 3.01 172 3.02
 103  0.750  0.000  0.750- 145 2.99 138 3.00 173 3.00 279 3.00 263 3.01 190 3.02
 104  0.000  1.000  0.000- 146 3.00 139 3.00 174 3.01 264 3.01 267 3.01 187 3.01
 105  0.250  0.000  0.250- 147 2.99 127 3.00 253 3.00 188 3.00 175 3.01 268 3.02
 106  0.500  0.002  0.500- 148 2.96 254 2.99 189 2.99 278 2.99 176 2.99 128 3.13
 107  0.751  0.499  0.751- 299 2.98 177 2.99 280 2.99 149 3.00 307 3.02 265 3.02
 108  0.000  0.500  0.000- 150 2.99 140 3.00 178 3.01 266 3.01 269 3.01 191 3.01
 109  0.250  0.000  0.750- 151 2.99 130 3.00 256 3.00 271 3.00 184 3.01 180 3.01
 110  0.500  0.000  0.000- 152 2.99 131 3.00 257 3.00 181 3.00 193 3.01 272 3.01
 111  0.250  0.500  0.750- 134 2.99 260 3.00 275 3.00 153 3.00 304 3.02 186 3.02
 112  0.500  0.500  0.000- 135 2.99 154 3.00 261 3.00 182 3.00 195 3.02 276 3.02
 113  0.984  0.125  0.231-  85 2.99  73 2.99
 114  0.235  0.125  0.481- 292 3.00  86 3.00
 115  0.985  0.625  0.231-  87 3.00  71 3.00
 116  0.232  0.625  0.480- 294 2.99  72 3.00
[...]
 266  0.876  0.518  0.026-  98 3.00 108 3.01
 267  0.025  0.982  0.126-  85 3.00 104 3.01
 268  0.275  0.982  0.376-  86 3.00 105 3.02
 269  0.026  0.482  0.126-  87 3.00 108 3.01
 270  0.025  0.982  0.626- 100 3.01  88 3.01
 271  0.276  0.982  0.876- 109 3.00  89 3.01
 272  0.525  0.982  0.126-  90 3.00 110 3.01
 273  0.775  0.982  0.376-  91 3.00  99 3.01
 274  0.025  0.482  0.626- 102 3.00  92 3.01
 275  0.276  0.482  0.876- 111 3.00  93 3.01
 276  0.525  0.482  0.127- 293 2.98 112 3.02
 277  0.775  0.482  0.376-  94 3.00 101 3.02
 278  0.525  0.982  0.625- 106 2.99  95 3.03
 279  0.775  0.982  0.876- 103 3.00  96 3.01
 280  0.776  0.482  0.876- 107 2.99  98 3.01
 281  0.383  0.375  0.350-
 282  0.638  0.375  0.606-
 283  0.611  0.625  0.379-
 284  0.349  0.625  0.639-
 285  0.395  0.375  0.616-
 286  0.648  0.375  0.364-
 287  0.621  0.625  0.658-
 288  0.357  0.625  0.390-
 289  0.250  0.249  0.250- 147 2.99 129 3.00 211 3.00 244 3.00 235 3.01 309 3.02
 290  0.500  0.249  0.500- 148 2.96 313 2.99 308 2.99 212 2.99 245 2.99 300 3.13
 291  0.500  0.250  0.250- 206 3.00 119 3.00 216 3.00 235 3.01 302 3.01 245 3.02
 292  0.250  0.250  0.500- 114 3.00 228 3.00 240 3.00 309 3.00 303 3.01 212 3.02
 293  0.500  0.500  0.250- 276 2.98 302 2.99 123 3.00 316 3.00 179 3.00 306 3.07
[...]
   0.296E+02 0.162E+01 0.126E+02   -.295E+02 -.161E+01 -.126E+02   -.871E-01 -.854E-02 0.730E-01   -.599E-04 -.152E-04 -.133E-03
   0.276E+02 0.291E+01 0.547E+01   -.275E+02 -.289E+01 -.558E+01   -.687E-01 -.112E-01 0.985E-01   -.220E-03 -.117E-03 -.331E-03
   0.297E+02 -.160E+01 0.124E+02   -.296E+02 0.159E+01 -.124E+02   -.882E-01 0.902E-02 0.735E-01   -.255E-03 -.139E-03 -.268E-03
   0.276E+02 -.294E+01 0.578E+01   -.276E+02 0.292E+01 -.589E+01   -.674E-01 0.107E-01 0.954E-01   -.793E-04 -.238E-04 -.244E-03
   0.295E+02 0.373E+01 0.174E+02   -.294E+02 -.371E+01 -.175E+02   -.800E-01 -.174E-01 0.348E-01   -.387E-03 -.255E-03 -.164E-03
   0.244E+02 0.147E+01 0.128E+02   -.244E+02 -.146E+01 -.129E+02   -.543E-01 -.790E-02 0.658E-01   -.418E-03 -.718E-04 -.368E-03
   0.279E+02 0.262E+01 0.684E+01   -.279E+02 -.260E+01 -.696E+01   -.866E-01 -.145E-01 0.106E+00   -.267E-03 -.300E-04 -.328E-03
   0.429E+02 0.112E+02 0.113E+02   -.428E+02 -.112E+02 -.114E+02   -.157E+00 -.359E-01 0.887E-01   -.398E-03 0.860E-03 -.354E-03
   0.291E+02 -.376E+01 0.175E+02   -.290E+02 0.374E+01 -.175E+02   -.805E-01 0.170E-01 0.378E-01   -.478E-03 -.100E-03 -.334E-03
   0.245E+02 -.149E+01 0.129E+02   -.245E+02 0.148E+01 -.130E+02   -.505E-01 0.848E-02 0.629E-01   -.470E-03 -.454E-04 -.342E-03
   0.279E+02 -.266E+01 0.678E+01   -.278E+02 0.264E+01 -.690E+01   -.876E-01 0.149E-01 0.107E+00   -.414E-03 -.162E-03 -.261E-03
   0.113E+02 0.185E+02 0.115E+02   -.115E+02 -.184E+02 -.116E+02   0.124E+00 -.862E-01 0.572E-01   -.382E-03 0.953E-03 -.562E-03
   0.269E+02 0.303E+01 0.188E+02   -.269E+02 -.302E+01 -.188E+02   -.727E-01 -.773E-02 0.416E-01   -.452E-03 -.487E-04 -.491E-03
   0.271E+02 -.308E+01 0.191E+02   -.270E+02 0.307E+01 -.192E+02   -.708E-01 0.757E-02 0.378E-01   -.175E-03 -.160E-03 -.186E-03
   -.278E+02 -.792E-01 0.104E+02   0.277E+02 0.782E-01 -.105E+02   0.733E-01 0.665E-03 0.896E-01   0.251E-03 0.572E-04 -.255E-03
   -.279E+02 -.141E-01 0.724E+01   0.279E+02 0.160E-01 -.739E+01   0.828E-01 -.134E-02 0.129E+00   0.505E-03 -.115E-03 -.882E-06
   -.265E+02 0.735E-01 0.120E+02   0.265E+02 -.732E-01 -.121E+02   0.661E-01 -.374E-03 0.705E-01   0.134E-03 0.158E-03 -.316E-03
   -.303E+02 -.522E-01 0.121E+02   0.302E+02 0.506E-01 -.122E+02   0.864E-01 0.127E-02 0.761E-01   0.243E-03 0.248E-05 -.400E-04
   -.312E+02 0.266E-01 0.117E+02   0.311E+02 -.272E-01 -.118E+02   0.971E-01 0.383E-03 0.799E-01   0.365E-03 0.810E-04 -.412E-03
   -.245E+02 -.899E-01 0.124E+02   0.244E+02 0.894E-01 -.125E+02   0.512E-01 0.299E-03 0.626E-01   0.100E-03 0.145E-03 -.131E-03
   -.244E+02 -.997E-01 0.126E+02   0.244E+02 0.991E-01 -.127E+02   0.439E-01 0.263E-03 0.675E-01   0.515E-03 0.149E-03 -.691E-03
   -.336E+02 0.101E+00 0.111E+02   0.335E+02 -.101E+00 -.111E+02   0.918E-01 -.835E-03 0.836E-01   0.283E-03 0.159E-03 -.387E-03
   -.383E+02 -.880E-02 0.139E+02   0.381E+02 0.823E-02 -.139E+02   0.123E+00 0.327E-03 0.772E-01   0.450E-03 0.110E-03 -.195E-03
   -.200E+02 0.104E+00 0.993E+01   0.199E+02 -.104E+00 -.100E+02   0.533E-01 -.183E-03 0.750E-01   0.808E-03 0.113E-03 -.974E-03
   -.179E+02 0.127E+00 0.156E+02   0.179E+02 -.129E+00 -.157E+02   0.421E-01 0.761E-03 0.492E-01   0.710E-03 0.137E-03 0.639E-04
   -.285E+02 -.160E+00 0.179E+02   0.284E+02 0.159E+00 -.178E+02   0.845E-01 0.127E-02 -.431E-01   0.240E-03 -.567E-04 -.873E-03
   -.277E+02 0.180E+00 0.145E+02   0.276E+02 -.180E+00 -.145E+02   0.707E-01 -.286E-03 0.505E-01   0.472E-03 0.978E-04 -.339E-03
   -.283E+02 -.163E+00 0.172E+02   0.283E+02 0.163E+00 -.172E+02   0.859E-01 0.403E-03 0.144E-01   0.345E-03 0.507E-04 -.139E-03
   0.128E+02 0.502E+01 -.455E+01   -.130E+02 -.520E+01 0.470E+01   0.174E+00 0.170E+00 -.152E+00   0.477E-03 0.374E-04 -.782E-04
   0.123E+01 0.290E+01 -.183E+00   -.117E+01 -.295E+01 0.224E+00   -.624E-01 0.506E-01 -.427E-01   0.276E-04 -.335E-05 0.532E-04
   0.813E+01 -.337E+01 -.215E+00   -.830E+01 0.344E+01 0.250E+00   0.163E+00 -.619E-01 -.352E-01   -.269E-04 -.146E-03 0.228E-03
   0.852E+00 -.309E+01 0.210E+00   -.879E+00 0.312E+01 -.242E+00   0.262E-01 -.380E-01 0.312E-01   0.128E-04 0.142E-03 -.976E-04
[...]
   0.313E+02 -.508E+02 -.156E+01   -.314E+02 0.511E+02 0.127E+01   0.995E-01 -.277E+00 0.256E+00   0.312E-04 -.741E-03 -.373E-03
   0.247E+02 -.251E+02 0.477E+02   -.249E+02 0.252E+02 -.479E+02   0.192E+00 -.159E+00 0.197E+00   0.268E-03 -.653E-03 0.314E-03
   -.208E+02 -.285E+02 -.239E+02   0.210E+02 0.287E+02 0.242E+02   -.161E+00 -.188E+00 -.261E+00   0.115E-03 -.256E-03 0.471E-04
   -.204E+02 -.204E+02 -.304E+02   0.206E+02 0.206E+02 0.306E+02   -.200E+00 -.165E+00 -.207E+00   0.228E-03 0.631E-04 0.294E-03
   0.333E+02 0.175E+02 -.275E+02   -.334E+02 -.176E+02 0.277E+02   0.156E+00 0.129E+00 -.201E+00   0.535E-03 0.401E-03 -.304E-03
   -.267E+01 0.508E+02 -.461E+02   0.245E+01 -.510E+02 0.463E+02   0.215E+00 0.221E+00 -.157E+00   -.258E-03 0.812E-03 -.257E-03
   -.244E+02 -.212E+02 0.263E+02   0.246E+02 0.213E+02 -.265E+02   -.179E+00 -.167E+00 0.232E+00   0.448E-03 -.286E-03 -.376E-03
   -.178E+02 -.288E+02 0.247E+02   0.180E+02 0.290E+02 -.249E+02   -.226E+00 -.187E+00 0.181E+00   0.120E-03 -.408E-03 -.487E-03
   0.313E+02 0.510E+02 -.824E+00   -.314E+02 -.513E+02 0.530E+00   0.977E-01 0.273E+00 0.260E+00   0.612E-04 0.409E-03 -.514E-03
   0.248E+02 0.249E+02 0.471E+02   -.250E+02 -.251E+02 -.473E+02   0.196E+00 0.158E+00 0.197E+00   0.317E-03 0.674E-03 0.468E-03
   0.334E+02 -.171E+02 -.275E+02   -.336E+02 0.172E+02 0.277E+02   0.157E+00 -.128E+00 -.199E+00   0.319E-03 -.559E-03 -.208E-03
   -.314E+01 -.513E+02 -.469E+02   0.292E+01 0.516E+02 0.470E+02   0.207E+00 -.238E+00 -.148E+00   -.217E-03 -.120E-02 0.915E-04
   -.356E+02 -.231E+02 -.836E+01   0.357E+02 0.230E+02 0.868E+01   -.161E+00 0.922E-01 -.285E+00   -.282E-04 -.588E-03 -.157E-03
   -.233E+02 0.128E+02 -.395E+02   0.235E+02 -.130E+02 0.397E+02   -.193E+00 0.174E+00 -.201E+00   -.513E-04 -.379E-03 -.869E-05
   0.260E+00 -.348E-01 0.246E+01   0.172E-11 -.398E-12 0.275E-11   -.209E+00 0.308E-01 -.256E+01   0.138E-02 0.437E-03 -.490E-03

 POSITION                                       TOTAL-FORCE (eV/Angst)
      8.96520     20.58910     20.03073         0.001634      0.000738      0.000025
     -7.87803     20.58873     11.95376         0.000716      0.000525      0.000468
      8.96573      8.82011     20.03088         0.001807     -0.000436      0.000264
     -7.87917      8.82092     11.95598         0.001388     -0.000294      0.000213
      0.54317     20.59141     28.11859         0.000661      0.000384      0.000405
      0.54408     20.58959      3.86676         0.001114      0.000190      0.001034
      0.55352     20.59418     11.85902         0.000952     -0.000317     -0.003597
      0.53810     20.58934     20.06198        -0.001253     -0.000580      0.002254
      0.54319      8.81823     28.11325         0.001096     -0.000484      0.000683
      0.54276      8.81959      3.87166         0.001281     -0.000103      0.000134
     -7.87581     20.59056     20.03085         0.001666      0.000298     -0.000744
      8.96688     20.58684     11.95124         0.001845      0.000838      0.000975
     -7.87557      8.81911     20.02899         0.001477     -0.000373     -0.000234
      8.96823      8.82256     11.95127         0.001676     -0.000594      0.000868
     -4.75440      2.94114      7.91321        -0.001378     -0.000221      0.000869
     -4.76785      2.93985     15.97667        -0.001404      0.000536      0.000603
     -4.76650     14.70450      7.88574        -0.000677     -0.000000      0.002281
    -13.17590      2.94110     15.99015        -0.002019     -0.000021     -0.000113
      3.67363      2.94074      7.91534        -0.001028     -0.000108      0.000691
      3.69061      2.94207     15.98066        -0.001351     -0.000128      0.000226
      3.66783      2.94043     24.07633        -0.000554     -0.000027     -0.000017
    -13.17008     14.70434     15.99566        -0.001132      0.000089      0.000727
      3.67755     14.70503      7.90082        -0.001598     -0.000172      0.000583
      3.66742     14.70487     24.08000        -0.001455     -0.000339      0.000057
     -4.75193      2.94151     24.07738        -0.001754     -0.000413      0.001073
     12.08879      2.94064     15.99125        -0.001231      0.000033     -0.000094
     -4.77471     14.70364     24.10766        -0.002881      0.000006      0.002311
     12.07349     14.70480     15.99913        -0.000534      0.000024     -0.000629
     13.17654     20.58845     16.32292         0.001383      0.000279      0.000095
     -3.66912     20.59045      8.23419         0.000683      0.000264     -0.000076
     13.17586      8.82074     16.32155         0.001370     -0.000351     -0.000042
     -3.66971      8.81943      8.23624         0.000274      0.000087      0.000129
      4.75607     20.58999     24.40424         0.000844      0.000713     -0.000906
    -12.08948     20.59041     16.32001         0.001080      0.000168      0.000109
      4.74951     20.58835      8.23064         0.001311      0.000686     -0.001032
      4.77817     20.59148     16.34507         0.001030     -0.000406     -0.001227
      4.75639      8.81937     24.40754         0.001208     -0.000312     -0.000861
    -12.08474      8.81885     16.31916        -0.000108     -0.000155      0.000152
      4.75044      8.82121      8.23144         0.001123     -0.000259     -0.000972
     -3.69790     20.59014     16.33605         0.001991     -0.000583     -0.000673
     -3.67721     20.59160     24.39938         0.001597      0.000369     -0.000732
     -3.67776      8.81769     24.40109         0.001517     -0.000046     -0.000654
     -0.54377      2.94073      4.19576        -0.000777     -0.000086     -0.000544
     -0.54509      2.94117     12.27091        -0.001545      0.000261      0.000133
     -0.54248     14.70494      4.21080        -0.001341     -0.000046     -0.000562
     -8.96402      2.94066     12.28267        -0.001728      0.000039     -0.000548
     -8.96781      2.94093     20.36426        -0.002022     -0.000124     -0.000147
      7.87698      2.94102     12.28235        -0.001131     -0.000089      0.000171
      7.88126      2.94099     20.36151        -0.001563     -0.000189      0.000344
     -8.96988     14.70477     12.27740        -0.001594     -0.000222     -0.000040
     -8.98008     14.70476     20.36701        -0.000373     -0.000117     -0.000989
      7.89865     14.70468     12.27297        -0.000209     -0.000216     -0.001938
      7.88444     14.70443     20.35846        -0.001044     -0.000293     -0.000511
     -0.54524      2.94152     20.38266        -0.000628     -0.000383     -0.000850
     -0.54489      2.94050     28.44800        -0.001452      0.000061      0.000072
     -0.53898     14.70512     28.42706        -0.000725     -0.000026     -0.000913
      8.43421     17.65777     16.15739        -0.001049     -0.000465     -0.000436
     -8.41767     17.64879      8.08124         0.000242      0.000768      0.000184
      8.42520      5.87598     16.15666         0.000375      0.001319      0.000300
     -8.42003      5.87966      8.07865        -0.000919     -0.000850     -0.000156
[...]
      2.52296     11.38851     17.71514         0.000186      0.003239     -0.000455
      1.69906     12.35123     13.77429         0.002112      0.000624     -0.001175
      1.69564     12.17085     21.78741        -0.000090     -0.000761      0.000503
     -1.68233      6.31203     18.58940        -0.002327     -0.001696      0.002191
     -1.69875      6.29683     10.52385        -0.001223     -0.001297      0.000246
      5.93590     17.26579     14.53070         0.001456      0.001578     -0.000064
     -2.47530     17.12346     14.57824         0.001650      0.000261      0.000732
     -5.90237      6.29816     17.75093        -0.000722      0.000482      0.000254
      2.49399      6.31606     17.74540         0.000930     -0.002865     -0.001049
      1.69469     17.06597     13.77008         0.002472     -0.001286     -0.001636
      1.69604     17.23784     21.78645         0.000530      0.000969      0.000465
      5.93646     12.14127     14.53055         0.001312     -0.001738     -0.000109
     -2.46334     12.32208     14.56931         0.001770     -0.001939      0.000803
     -1.63496     11.40996     18.60938        -0.000393      0.004874      0.001268
     -1.69616     11.35152     10.52407        -0.000205      0.000984     -0.000997
    total drift:                                0.052367     -0.003525     -0.098824

  FREE ENERGIE OF THE ION-ELECTRON SYSTEM (eV)
  free  energy   TOTEN  =    -11418.47555517 eV

  energy  without entropy=   -11418.47555517  energy(sigma->0) =   -11418.47555517

 d Force = 0.5391881E-03[ 0.212E-03, 0.866E-03]  d Energy = 0.6128810E-03-0.737E-04
 d Force = 0.2495723E+00[ 0.241E+00, 0.258E+00]  d Ewald  = 0.2495899E+00-0.176E-04

 stress matrix after NEB project (eV)
    -15.37044     -0.01329      0.17840
     -0.01328    -17.82444     -0.01675
      0.17852     -0.01676    -19.09745
  FORCES: max atom, RMS     0.005284    0.001919
  FORCE total and by dimension    0.034269    0.004874
  Stress total and by dimension   30.310691   19.097446

 reached required accuracy - stopping structural energy minimisation

 total charge

# of ion       s       p       d       tot
    1        1.786   4.719   0.019   6.523
    2        1.786   4.719   0.019   6.523
    3        1.786   4.719   0.019   6.523
    4        1.786   4.719   0.019   6.523
    5        1.786   4.719   0.019   6.523
    6        1.786   4.719   0.019   6.523
    7        1.786   4.719   0.019   6.524
    8        1.786   4.719   0.019   6.523
    9        1.786   4.719   0.019   6.523
   10        1.786   4.719   0.019   6.523
   11        1.786   4.719   0.019   6.523
   12        1.786   4.719   0.019   6.523
   13        1.786   4.719   0.019   6.523
   14        1.786   4.719   0.019   6.523
   15        1.786   4.719   0.019   6.523
   16        1.786   4.719   0.019   6.524
   17        1.786   4.719   0.019   6.524
   18        1.786   4.719   0.019   6.523
   19        1.786   4.719   0.019   6.523
   20        1.786   4.719   0.019   6.523
   21        1.786   4.719   0.019   6.523
   22        1.786   4.719   0.019   6.523
   23        1.786   4.719   0.019   6.523
   24        1.786   4.719   0.019   6.523
   25        1.786   4.719   0.019   6.523
   26        1.786   4.719   0.019   6.523
   27        1.786   4.719   0.019   6.524
   28        1.786   4.719   0.018   6.523
   29        1.786   4.719   0.019   6.523
   30        1.786   4.719   0.019   6.523
   31        1.786   4.719   0.019   6.523
   32        1.786   4.719   0.019   6.523
   33        1.786   4.719   0.019   6.523
   34        1.786   4.719   0.019   6.523
   35        1.786   4.719   0.019   6.523
   36        1.786   4.719   0.019   6.523
   37        1.786   4.719   0.019   6.523
   38        1.786   4.719   0.019   6.523
   39        1.786   4.719   0.019   6.523
   40        1.786   4.719   0.018   6.523
   41        1.786   4.719   0.019   6.523
   42        1.786   4.719   0.019   6.523
   43        1.786   4.719   0.019   6.523
   44        1.786   4.719   0.019   6.524
   45        1.786   4.719   0.019   6.523
   46        1.786   4.719   0.019   6.523
   47        1.786   4.719   0.019   6.523
   48        1.786   4.719   0.019   6.523
   49        1.786   4.719   0.019   6.523
   50        1.786   4.719   0.019   6.523
   51        1.786   4.719   0.019   6.523
   52        1.786   4.719   0.019   6.523
   53        1.786   4.719   0.019   6.523
   54        1.786   4.719   0.019   6.523
   55        1.786   4.719   0.019   6.524
   56        1.786   4.719   0.018   6.523
   57        1.555   0.417   9.834  11.806
   58        1.554   0.415   9.833  11.802
   59        1.554   0.416   9.833  11.804
   60        1.554   0.415   9.833  11.803
[...]
  305        1.614   3.282   0.006   4.902
  306        1.614   3.280   0.006   4.900
  307        1.614   3.285   0.006   4.905
  308        1.614   3.283   0.006   4.903
  309        1.614   3.285   0.006   4.904
  310        1.614   3.286   0.006   4.906
  311        1.614   3.280   0.006   4.900
  312        1.614   3.284   0.006   4.904
  313        1.614   3.283   0.006   4.902
  314        1.614   3.280   0.006   4.900
  315        1.614   3.285   0.006   4.905
  316        1.614   3.286   0.006   4.906
  317        1.614   3.280   0.006   4.900
  318        1.614   3.281   0.006   4.901
  319        1.614   3.285   0.006   4.905
tot        522.016 955.938 631.6812109.634