 vasp.5.4.4.18Apr17-6-g9f103f2a35 (build Jun 29 2021 12:58:12) complex

 INCAR:
 POTCAR:    PAW_PBE Cs_sv 08Apr2002
 POTCAR:    PAW_PBE Pb_d 06Sep2000
 POTCAR:    PAW_PBE Br 06Sep2000
 POTCAR:    PAW_PBE Cs_sv 08Apr2002
   VRHFIN =Cs: 5s5p6s

   TITEL  = PAW_PBE Cs_sv 08Apr2002
   POMASS =  132.900; ZVAL   =    9.000    mass and valenz
   ENMAX  =  220.318; ENMIN  =  165.238 eV

   TITEL  = PAW_PBE Pb_d 06Sep2000
   POMASS =  207.200; ZVAL   =   14.000    mass and valenz
   ENMAX  =  237.835; ENMIN  =  178.376 eV

   TITEL  = PAW_PBE Br 06Sep2000
   POMASS =   79.904; ZVAL   =    7.000    mass and valenz
   ENMAX  =  216.285; ENMIN  =  162.214 eV

 Optimization of the real space projectors (new method)

 maximal supplied QI-value         = 15.12
 optimisation between [QCUT,QGAM] = [  8.77, 17.69] = [ 21.53, 87.61] Ry
 Optimized for a Real-space Cutoff    1.85 Angstroem

   l    n(q)    QCUT    max X(q) W(low)/X(q) W(high)/X(q)  e(spline)
   0     10     8.768    25.322    0.81E-04    0.51E-04    0.48E-06
   0     10     8.768    99.187    0.78E-04    0.50E-04    0.47E-06
   1      9     8.768    11.761    0.21E-03    0.20E-03    0.37E-06
   1      9     8.768     8.275    0.24E-03    0.22E-03    0.41E-06
   2      9     8.768     3.829    0.23E-04    0.15E-03    0.18E-06
 Optimization of the real space projectors (new method)

[...]

   l    n(q)    QCUT    max X(q) W(low)/X(q) W(high)/X(q)  e(spline)
   2      7     8.768     3.846    0.48E-04    0.11E-03    0.11E-06
   2      7     8.768     8.593    0.20E-03    0.22E-04    0.24E-06
   0      8     8.768    20.082    0.68E-04    0.88E-04    0.41E-07
   0      8     8.768     8.597    0.89E-04    0.13E-03    0.59E-07
   1      8     8.768    33.223    0.15E-03    0.53E-04    0.87E-07
   1      8     8.768    15.899    0.14E-03    0.44E-04    0.78E-07
 Optimization of the real space projectors (new method)

 maximal supplied QI-value         = 17.95
 optimisation between [QCUT,QGAM] = [  8.80, 17.59] = [ 21.67, 86.68] Ry
 Optimized for a Real-space Cutoff    1.59 Angstroem

   l    n(q)    QCUT    max X(q) W(low)/X(q) W(high)/X(q)  e(spline)
   0      8     8.797   175.082    0.82E-04    0.14E-03    0.89E-07
   0      8     8.797   174.004    0.79E-04    0.14E-03    0.86E-07
   1      8     8.797    54.315    0.16E-03    0.14E-04    0.30E-06
   1      8     8.797    42.441    0.16E-03    0.14E-04    0.30E-06
   2      7     8.797     3.596    0.92E-04    0.15E-03    0.85E-07
  PAW_PBE Cs_sv 08Apr2002               :
  PAW_PBE Pb_d 06Sep2000                :
  PAW_PBE Br 06Sep2000                  :

 POSCAR: Cs4 Pb4 Br12
  positions in direct lattice
  velocities in cartesian coordinates

 METAGGA = SCAN     LMAXTAU =  6    LMIXTAU =  F

 VTST: version 3.2, (02/03/18)

 CHAIN: initializing optimizer

 OPT: Using VASP Conjugate-Gradient optimizer
 CHAIN: Read ICHAIN            0

 POSCAR: Cs4 Pb4 Br12
  positions in direct lattice
  velocities in cartesian coordinates

 ion  position               nearest neighbor table
   1  0.068  0.250  0.477-
   2  0.432  0.750  0.977-
   3  0.568  0.250  0.023-
   4  0.932  0.750  0.523-
   5  0.000  0.000  0.000-  15 3.00  18 3.00  16 3.01  17 3.01  10 3.01  11 3.01
   6  0.500  0.000  0.500-  17 3.00  16 3.00  15 3.01  18 3.01   9 3.01  12 3.01
   7  0.500  0.500  0.500-  13 3.00  19 3.00  14 3.01  20 3.01   9 3.01  12 3.01
   8  0.000  0.500  0.000-  14 3.00  20 3.00  19 3.01  13 3.01  10 3.01  11 3.01
   9  0.505  0.750  0.440-   6 3.01   7 3.01
  10  0.995  0.250  0.940-   5 3.01   8 3.01
  11  0.005  0.750  0.060-   5 3.01   8 3.01
  12  0.495  0.250  0.560-   6 3.01   7 3.01
  13  0.302  0.467  0.192-   7 3.00   8 3.01
  14  0.198  0.533  0.692-   8 3.00   7 3.01
  15  0.802  0.033  0.308-   5 3.00   6 3.01
  16  0.698  0.967  0.808-   6 3.00   5 3.01
  17  0.302  0.033  0.192-   6 3.00   5 3.01
  18  0.198  0.967  0.692-   5 3.00   6 3.01
  19  0.698  0.533  0.808-   7 3.00   8 3.01
  20  0.802  0.467  0.308-   8 3.00   7 3.01

  LATTYP: Found a simple orthorhombic cell.
 ALAT       =     7.9422813032
 B/A-ratio  =     1.0707525268
 C/A-ratio  =     1.4959739411

  Lattice vectors:

 A1 = (   0.0000000000,   0.0000000000,   7.9422813032)
 A2 = (  -8.5042177739,   0.0000000000,   0.0000000000)
 A3 = (   0.0000000000, -11.8814458625,   0.0000000000)

Analysis of symmetry for initial positions (statically):
 Subroutine PRICEL returns:
 Original cell was already a primitive cell.

 Routine SETGRP: Setting up the symmetry group for a
 simple orthorhombic supercell.

 Subroutine GETGRP returns: Found  8 space group operations
 (whereof  2 operations were pure point group operations)
 out of a pool of  8 trial point group operations.

The static configuration has the point symmetry S_2 .
 The point group associated with its full space group is D_2h.

Analysis of symmetry for dynamics (positions and initial velocities):
 Subroutine PRICEL returns:
 Original cell was already a primitive cell.

 Routine SETGRP: Setting up the symmetry group for a
 simple orthorhombic supercell.

 Subroutine GETGRP returns: Found  8 space group operations
 (whereof  2 operations were pure point group operations)
 out of a pool of  8 trial point group operations.

The dynamic configuration has the point symmetry S_2 .
 The point group associated with its full space group is D_2h.

 Subroutine INISYM returns: Found  8 space group operations
 (whereof  2 operations are pure point group operations),
 and found     1 'primitive' translations

 KPOINTS: 1x1x1

Automatic generation of k-mesh.
Space group operators:
 irot       det(A)        alpha          n_x          n_y          n_z        tau_x        tau_y        tau_z
    1     1.000000     0.000001     1.000000     0.000000     0.000000     0.000000     0.000000     0.000000
    2    -1.000000     0.000001     1.000000     0.000000     0.000000     0.000000     0.000000     0.000000
    3     1.000000   179.999999     0.000000     1.000000     0.000000     0.000000    -0.500000     0.000000
    4    -1.000000   179.999999     0.000000     1.000000     0.000000     0.000000    -0.500000     0.000000
    5     1.000000   179.999999     1.000000     0.000000     0.000000    -0.500000    -0.500000     0.500000
    6    -1.000000   179.999999     1.000000     0.000000     0.000000    -0.500000    -0.500000     0.500000
    7     1.000000   179.999999     0.000000     0.000000     1.000000    -0.500000     0.000000     0.500000
    8    -1.000000   179.999999     0.000000     0.000000     1.000000    -0.500000     0.000000     0.500000

 Subroutine IBZKPT returns following result:

 Found      8 irreducible k-points:

 Following reciprocal coordinates:
            Coordinates               Weight
  0.000000  0.000000  0.000000      1.000000
  0.333333  0.000000  0.000000      2.000000
  0.000000  0.500000  0.000000      1.000000
  0.333333  0.500000  0.000000      2.000000
  0.000000  0.000000  0.333333      2.000000
  0.333333  0.000000  0.333333      4.000000
  0.000000  0.500000  0.333333      2.000000
  0.333333  0.500000  0.333333      4.000000

 Following cartesian coordinates:
            Coordinates               Weight
  0.000000  0.000000  0.000000      1.000000
  0.039196  0.000000  0.000000      2.000000
  0.000000  0.042082  0.000000      1.000000
  0.039196  0.042082  0.000000      2.000000
  0.000000  0.000000  0.041969      2.000000
  0.039196  0.000000  0.041969      4.000000
  0.000000  0.042082  0.041969      2.000000
  0.039196  0.042082  0.041969      4.000000

 SYSTEM =  CsPbBr3 cubic bulk
 POSCAR =  Cs4 Pb4 Br12

 Startparameter for this run:
   NWRITE =      2    write-flag & timer
   PREC   = accura    normal or accurate (medium, high low for compatibility)
   ISTART =      0    job   : 0-new  1-cont  2-samecut
   ICHARG =      2    charge: 1-file 2-atom 10-const
   ISPIN  =      1    spin polarized calculation?
   LNONCOLLINEAR =      F non collinear calculations
   LSORBIT =      F    spin-orbit coupling
   INIWAV =      1    electr: 0-lowe 1-rand  2-diag
   LASPH  =      T    aspherical Exc in radial PAW
   METAGGA=      F    non-selfconsistent MetaGGA calc.

 Electronic Relaxation 1
   ENCUT  =  300.0 eV  22.05 Ry    4.70 a.u.  12.01 16.78 11.22*2*pi/ulx,y,z
   ENINI  =  300.0     initial cutoff
   ENAUG  =  503.9 eV  augmentation charge cutoff
   NELM   =    200;   NELMIN=  2; NELMDL= -5     # of ELM steps
   EDIFF  = 0.1E-05   stopping-criterion for ELM
   LREAL  =      T    real-space projection
   NLSPLINE    = F    spline interpolate recip. space projectors
   LCOMPAT=      F    compatible to vasp.4.4
   GGA_COMPAT  = T    GGA compatible to vasp.4.4-vasp.4.6
   LMAXPAW     = -100 max onsite density
   LMAXMIX     =    2 max onsite mixed and CHGCAR
   VOSKOWN=      0    Vosko Wilk Nusair interpolation
   ROPT   =   -0.00025  -0.00025  -0.00025
 Ionic relaxation
   EDIFFG = -.1E-01   stopping-criterion for IOM
   NSW    =      0    number of steps for IOM
   NBLOCK =      1;   KBLOCK =      1    inner block; outer block
   IBRION =     -1    ionic relax: 0-MD 1-quasi-New 2-CG
   NFREE  =      1    steps in history (QN), initial steepest desc. (CG)
   ISIF   =      3    stress and relaxation
   IWAVPR =     10    prediction:  0-non 1-charg 2-wave 3-comb
   ISYM   =      2    0-nonsym 1-usesym 2-fastsym
   LCORR  =      T    Harris-Foulkes like correction to forces

   POTIM  = 0.5000    time-step for ionic-motion
   TEIN   =    0.0    initial temperature
   TEBEG  =    0.0;   TEEND  =   0.0 temperature during run
   SMASS  =  -3.00    Nose mass-parameter (am)
   estimated Nose-frequenzy (Omega)   =  0.10E-29 period in steps =****** mass=  -0.165E-26a.u.
   SCALEE = 1.0000    scale energy and forces
   NPACO  =    256;   APACO  = 16.0  distance and # of slots for P.C.
   PSTRESS=    0.0 pullay stress

  Mass of Ions in am
   POMASS = 132.90207.20 79.90
  Ionic Valenz
   ZVAL   =   9.00 14.00  7.00
  Atomic Wigner-Seitz radii
  virtual crystal weights
   VCA    =   1.00  1.00  1.00
   NELECT =     176.0000    total number of electrons
   NUPDOWN=      -1.0000    fix difference up-down

 DOS related values:
   EMIN   =  10.00;   EMAX   =-10.00  energy-range for DOS
   EFERMI =   0.00
   ISMEAR =     0;   SIGMA  =   0.01  broadening in eV -4-tet -1-fermi 0-gaus

 Electronic relaxation 2 (details)
   IALGO  =     38    algorithm
   LDIAG  =      T    sub-space diagonalisation (order eigenvalues)
   LSUBROT=      F    optimize rotation matrix (better conditioning)
   TURBO    =      0    0=normal 1=particle mesh
   IRESTART =      0    0=no restart 2=restart with 2 vectors
   NREBOOT  =      0    no. of reboots
   NMIN     =      0    reboot dimension
   EREF     =   0.00    reference energy to select bands
   IMIX   =      4    mixing-type and parameters
     AMIX     =   0.40;   BMIX     =  1.00
     AMIX_MAG =   1.60;   BMIX_MAG =  1.00
     AMIN     =   0.10
     WC   =   100.;   INIMIX=   1;  MIXPRE=   1;  MAXMIX= -45

 Intra band minimization:
   WEIMIN = 0.0000     energy-eigenvalue tresh-hold
   EBREAK =  0.22E-08  absolut break condition
   DEPER  =   0.30     relativ break condition

   TIME   =   0.40     timestep for ELM

[...]
  average eigenvalue GAMMA=   1.1608
  1.1608

[...]

 Broyden mixing:
  rms(total) = 0.20117E-03    rms(broyden)= 0.19687E-03
  rms(prec ) = 0.24095E-03
  weight for this iteration     100.00

[...]

 Broyden mixing:
  rms(total) = 0.86968E-04    rms(broyden)= 0.76553E-04
  rms(prec ) = 0.88915E-04
  weight for this iteration     100.00
  WARNING: grid for Broyden might be to small

[...]

 eigenvalue-minimisations  :  1120
 total energy-change (2. order) : 0.1073583E-05  (-0.4460410E-08)
 number of electron     176.0000002 magnetization
 augmentation part       -2.3175115 magnetization

 Broyden mixing:
  rms(total) = 0.42853E-04    rms(broyden)= 0.11570E-04
  rms(prec ) = 0.14199E-04
  weight for this iteration     100.00
  WARNING: grid for Broyden might be to small

 eigenvalues of (default mixing * dielectric matrix)
  average eigenvalue GAMMA=   1.7314
  3.6147  3.0410  2.4047  2.4047  1.9785  1.2713  1.1458  1.1458  0.9658  0.9658
  0.9192  0.9192

[...]

--------------------------------------- Iteration      1(  18)  ---------------------------------------

 eigenvalue-minimisations  :  1096
 total energy-change (2. order) :-0.1093736E-07  (-0.2021291E-08)
 number of electron     176.0000002 magnetization
 augmentation part       -2.3175115 magnetization

 Free energy of the ion-electron system (eV)
  alpha Z        PSCENC =       449.60212043
  Ewald energy   TEWEN  =     -9230.26296354
  -Hartree energ DENC   =     -3665.82356527
  -exchange      EXHF   =         0.00000000
  -V(xc)+E(xc)   XCENC  =       481.33630058
  PAW double counting   =     11533.11982953   -12069.06208388
  entropy T*S    EENTRO =        -0.00000000
  eigenvalues    EBANDS =     -1504.10451007
  atomic energy  EATOM  =     13290.28009929
  Solvation  Ediel_sol  =         0.00000000
  free energy    TOTEN  =      -714.91477293 eV

  energy without entropy =     -714.91477293  energy(sigma->0) =     -714.91477293

 average (electrostatic) potential at core
  the test charge radii are     1.1312  1.1541  1.0178
  (the norm of the test charge is              1.0000)
       1 -55.2383       2 -55.2383       3 -55.2383       4 -55.2383       5-101.6595
       6-101.6595       7-101.6595       8-101.6595       9 -68.9726      10 -68.9726
      11 -68.9726      12 -68.9726      13 -68.9712      14 -68.9712      15 -68.9712
      16 -68.9712      17 -68.9712      18 -68.9712      19 -68.9712      20 -68.9712

 E-fermi :   0.5365     XC(G=0):  -8.0801     alpha+bet : -7.0535

 k-point     1 :       0.0000    0.0000    0.0000
  band No.  band energies     occupation
      1     -20.7685      2.00000
      2     -20.7668      2.00000
      3     -20.7643      2.00000
      4     -20.7633      2.00000
      5     -16.4730      2.00000
      6     -16.4672      2.00000
      7     -16.4671      2.00000
      8     -16.4469      2.00000
      9     -16.4202      2.00000
     10     -16.3887      2.00000
     11     -16.3809      2.00000
     12     -16.3807      2.00000
     13     -16.3247      2.00000
     14     -16.3243      2.00000
     15     -16.3238      2.00000
     16     -16.3231      2.00000
     17     -16.3174      2.00000
     18     -16.3169      2.00000
     19     -16.3165      2.00000
     20     -16.3160      2.00000
     21     -16.3088      2.00000
     22     -16.3085      2.00000
     23     -16.3076      2.00000
     24     -16.3074      2.00000
     25     -14.3203      2.00000
     26     -14.1502      2.00000
     27     -14.0107      2.00000
     28     -14.0021      2.00000
     29     -14.0012      2.00000
     30     -13.9956      2.00000
     31     -13.9677      2.00000
     32     -13.9636      2.00000
     33     -13.9411      2.00000
     34     -13.7352      2.00000
     35     -13.7292      2.00000
     36     -13.7270      2.00000
     37      -8.1513      2.00000
     38      -7.6689      2.00000
     39      -7.2180      2.00000
     40      -7.1989      2.00000
     41      -7.1988      2.00000
     42      -7.1854      2.00000
     43      -7.1769      2.00000
     44      -7.1749      2.00000
     45      -7.1664      2.00000
     46      -7.1615      2.00000
     47      -7.1575      2.00000
     48      -7.1533      2.00000
     49      -7.1467      2.00000
     50      -7.1350      2.00000
     51      -7.1048      2.00000
     52      -6.5456      2.00000
     53      -3.2752      2.00000
     54      -3.2742      2.00000
     55      -3.2128      2.00000
     56      -3.1581      2.00000
     57      -3.1225      2.00000
     58      -3.0363      2.00000
     59      -2.1307      2.00000
     60      -1.9064      2.00000
[...]
     98       5.9004      0.00000
     99       6.0253      0.00000
    100       6.0460      0.00000
    101       6.1730      0.00000
    102       6.1847      0.00000
    103       6.2367      0.00000
    104       6.4205      0.00000
    105       6.4819      0.00000
    106       6.4832      0.00000
    107       6.5974      0.00000
    108       6.7505      0.00000
    109       6.8986      0.00000
    110       6.9979      0.00000
    111       7.0234      0.00000
    112       7.0971      0.00000

[...]

 k-point     8 :       0.3333    0.5000    0.3333
  band No.  band energies     occupation
      1     -20.7661      2.00000
      2     -20.7661      2.00000
      3     -20.7650      2.00000
      4     -20.7650      2.00000
      5     -16.4543      2.00000
      6     -16.4543      2.00000
      7     -16.4413      2.00000
      8     -16.4413      2.00000
      9     -16.4176      2.00000
     10     -16.4176      2.00000
     11     -16.4019      2.00000
     12     -16.4019      2.00000
     13     -16.3240      2.00000
     14     -16.3240      2.00000
     15     -16.3239      2.00000
     16     -16.3239      2.00000
     17     -16.3167      2.00000
     18     -16.3167      2.00000
     19     -16.3165      2.00000
     20     -16.3165      2.00000
     21     -16.3082      2.00000
     22     -16.3082      2.00000
     23     -16.3079      2.00000
     24     -16.3079      2.00000
     25     -14.1736      2.00000
     26     -14.1736      2.00000
     27     -14.0858      2.00000
     28     -14.0858      2.00000
     29     -13.9974      2.00000
     30     -13.9974      2.00000
     31     -13.9130      2.00000
     32     -13.9130      2.00000
     33     -13.8234      2.00000
     34     -13.8234      2.00000
     35     -13.7922      2.00000
     36     -13.7922      2.00000
     37      -7.5847      2.00000
     38      -7.5847      2.00000
     39      -7.3420      2.00000
     40      -7.3420      2.00000
     41      -7.1871      2.00000
     42      -7.1871      2.00000
     43      -7.1696      2.00000
     44      -7.1696      2.00000
     45      -7.1552      2.00000
     46      -7.1552      2.00000
     47      -7.1505      2.00000
     48      -7.1505      2.00000
     49      -7.1420      2.00000
     50      -7.1420      2.00000
     51      -7.1195      2.00000
     52      -7.1195      2.00000
     53      -3.1120      2.00000
     54      -3.1120      2.00000
     55      -2.7556      2.00000
     56      -2.7556      2.00000
     57      -2.4778      2.00000
     58      -2.4778      2.00000
     59      -2.3638      2.00000
     60      -2.3638      2.00000
[...]
     98       5.0743      0.00000
     99       5.7717      0.00000
    100       5.7717      0.00000
    101       6.3269      0.00000
    102       6.3269      0.00000
    103       6.4394      0.00000
    104       6.4394      0.00000
    105       6.6425      0.00000
    106       6.6425      0.00000
    107       6.8146      0.00000
    108       6.8146      0.00000
    109       6.8487      0.00000
    110       6.8487      0.00000
    111       7.0293      0.00000
    112       7.0293      0.00000

 soft charge-density along one line, spin component           1
         0         1         2         3         4         5         6         7         8         9
 total charge-density along one line

------------------------ aborting loop because EDIFF is reached ----------------------------------------

 total charge

# of ion       s       p       d       tot
    1        1.785   4.719   0.018   6.522
    2        1.785   4.719   0.018   6.522
    3        1.785   4.719   0.018   6.522
    4        1.785   4.719   0.018   6.522
    5        1.553   0.418   9.833  11.803
    6        1.553   0.417   9.833  11.803
    7        1.553   0.417   9.833  11.803
    8        1.553   0.418   9.833  11.803
    9        1.614   3.285   0.006   4.904
   10        1.614   3.285   0.006   4.905
   11        1.614   3.285   0.006   4.905
   12        1.614   3.285   0.006   4.904
   13        1.615   3.271   0.006   4.893
   14        1.613   3.294   0.006   4.913
   15        1.613   3.294   0.006   4.913
   16        1.615   3.271   0.006   4.893
   17        1.615   3.271   0.006   4.893
   18        1.613   3.294   0.006   4.913
   19        1.615   3.271   0.006   4.893
   20        1.613   3.294   0.006   4.913
tot         32.723  59.943  39.476 132.142

  FORCE on cell =-STRESS in cart. coord.  units (eV):
  Direction    XX          YY          ZZ          XY          YZ          ZX
  Alpha Z   449.60212   449.60212   449.60212
  Ewald   -3031.08015 -3026.48904 -3172.72065    -0.00000    -0.00000     0.00000
  Hartree  1257.82329  1241.35060  1166.64851    -0.00000    -0.00000    -0.00000
  E(xc)    -738.79517  -738.84492  -738.85616     0.00000     0.00000    -0.03137
  Local   -1494.45546 -1481.68311 -1263.32189     0.00000    -0.00000     0.00000
  n-local   899.89921   899.25692   898.91762    -0.00000    -0.00000     0.04572
  augment   406.83988   406.16485   406.05737     0.00000    -0.00003    -0.00001
  Kinetic  2248.91003  2248.79880  2252.96738     0.00000     0.00000    -1.55729
  Fock        0.00000     0.00000     0.00000     0.00000     0.00000     0.00000
  Total      -1.25625    -1.84378    -0.70570     0.00000     0.00000     0.00000
  in kB      -2.50806    -3.68104    -1.40890     0.00000     0.00000     0.00000

 VOLUME and BASIS-vectors are now :
  energy-cutoff  :      300.00
  volume of cell :      802.51
      direct lattice vectors                 reciprocal lattice vectors
     8.504217774  0.000000000  0.000000000     0.117588710  0.000000000  0.000000000
     0.000000000 11.881445862  0.000000000     0.000000000  0.084164841  0.000000000
     0.000000000  0.000000000  7.942281303     0.000000000  0.000000000  0.125908409

  length of vectors
     8.504217774 11.881445862  7.942281303     0.117588710  0.084164841  0.125908409

 FORCES acting on ions
    electron-ion (+dipol)            ewald-force                    non-local-force                 convergence-correction
   0.274E+02 0.206E-12 -.155E+02   -.273E+02 -.711E-14 0.155E+02   -.943E-01 0.000E+00 -.651E-01   0.300E-04 -.618E-13 -.493E-04
   -.274E+02 0.100E-12 -.155E+02   0.273E+02 0.000E+00 0.155E+02   0.943E-01 0.000E+00 -.651E-01   -.300E-04 0.102E-12 -.493E-04
   0.274E+02 -.214E-11 0.155E+02   -.273E+02 0.142E-13 -.155E+02   -.943E-01 0.000E+00 0.651E-01   0.300E-04 -.603E-13 0.493E-04
   -.274E+02 -.809E-12 0.155E+02   0.273E+02 0.142E-13 -.155E+02   0.943E-01 0.000E+00 0.651E-01   -.300E-04 0.104E-12 0.493E-04
   0.804E-12 0.284E-12 0.860E-12   -.166E-11 0.629E-12 0.114E-12   0.000E+00 0.000E+00 0.112E-22   -.359E-13 -.135E-12 0.729E-14
   0.316E-11 -.923E-12 -.766E-11   0.366E-11 -.146E-11 0.568E-13   0.000E+00 0.000E+00 0.550E-23   -.125E-12 -.126E-12 0.554E-13
   0.393E-11 -.147E-11 -.527E-11   0.369E-11 0.144E-11 0.142E-13   0.000E+00 0.000E+00 -.485E-23   -.145E-12 0.683E-13 0.350E-13
   0.839E-12 0.902E-12 0.749E-12   -.165E-11 -.625E-12 0.995E-13   0.000E+00 0.000E+00 -.112E-22   -.279E-13 0.126E-12 -.174E-15
   0.108E+02 0.124E-12 0.351E+02   -.109E+02 -.284E-13 -.353E+02   0.104E+00 -.165E-23 0.208E+00   0.153E-04 0.520E-13 0.412E-04
   -.108E+02 0.277E-11 0.351E+02   0.109E+02 0.284E-13 -.353E+02   -.104E+00 0.000E+00 0.208E+00   -.153E-04 -.751E-13 0.412E-04
   0.108E+02 0.616E-12 -.351E+02   -.109E+02 0.142E-13 0.353E+02   0.104E+00 0.000E+00 -.208E+00   0.153E-04 0.167E-13 -.412E-04
   -.108E+02 0.357E-11 -.351E+02   0.109E+02 0.000E+00 0.353E+02   -.104E+00 0.000E+00 -.208E+00   -.153E-04 -.961E-13 -.412E-04
   -.215E+02 0.163E+02 0.278E+02   0.217E+02 -.165E+02 -.281E+02   -.186E+00 0.155E+00 0.255E+00   0.111E-04 -.250E-04 -.190E-05
   0.215E+02 -.163E+02 0.278E+02   -.217E+02 0.165E+02 -.281E+02   0.186E+00 -.155E+00 0.255E+00   -.111E-04 0.250E-04 -.190E-05
   -.215E+02 -.163E+02 -.278E+02   0.217E+02 0.165E+02 0.281E+02   -.186E+00 -.155E+00 -.255E+00   0.111E-04 0.250E-04 0.190E-05
   0.215E+02 0.163E+02 -.278E+02   -.217E+02 -.165E+02 0.281E+02   0.186E+00 0.155E+00 -.255E+00   -.111E-04 -.250E-04 0.190E-05
   -.215E+02 -.163E+02 0.278E+02   0.217E+02 0.165E+02 -.281E+02   -.186E+00 -.155E+00 0.255E+00   0.111E-04 0.250E-04 -.190E-05
   0.215E+02 0.163E+02 0.278E+02   -.217E+02 -.165E+02 -.281E+02   0.186E+00 0.155E+00 0.255E+00   -.111E-04 -.250E-04 -.190E-05
   0.215E+02 -.163E+02 -.278E+02   -.217E+02 0.165E+02 0.281E+02   0.186E+00 -.155E+00 -.255E+00   -.111E-04 0.250E-04 0.190E-05
   -.215E+02 0.163E+02 -.278E+02   0.217E+02 -.165E+02 0.281E+02   -.186E+00 0.155E+00 -.255E+00   0.111E-04 -.250E-04 0.190E-05
   -.104E-09 0.597E-11 -.492E-11   -.142E-13 0.284E-13 -.213E-13   -.555E-16 -.111E-15 -.111E-15   -.324E-12 -.975E-13 0.124E-12

 POSITION                                       TOTAL-FORCE (eV/Angst)
      0.57638      2.97036      3.78462        -0.000993      0.000000      0.007632
      3.67573      8.91108      7.75576         0.000993      0.000000      0.007632
      4.82849      2.97036      0.18652        -0.000993      0.000000     -0.007632
      7.92784      8.91108      4.15767         0.000993      0.000000     -0.007632
      0.00000      0.00000      0.00000         0.000000      0.000000     -0.000000
      4.25211      0.00000      3.97114         0.000000      0.000000     -0.000000
      4.25211      5.94072      3.97114         0.000000      0.000000     -0.000000
      0.00000      5.94072      0.00000         0.000000      0.000000     -0.000000
      4.29682      8.91108      3.49663         0.005950      0.000000     -0.012731
      8.45951      2.97036      7.46777        -0.005950      0.000000     -0.012731
      0.04471      8.91108      0.47451         0.005950     -0.000000      0.012731
      4.20740      2.97036      4.44565        -0.005950     -0.000000      0.012731
      2.56411      5.54665      1.52180         0.005091     -0.001246      0.010260
      1.68800      6.33480      5.49294        -0.005091      0.001246      0.010260
      6.81622      0.39407      2.44934         0.005091      0.001246     -0.010260
      5.94011     11.48737      6.42049        -0.005091     -0.001246     -0.010260
      2.56411      0.39407      1.52180         0.005091      0.001246      0.010260
      1.68800     11.48737      5.49294        -0.005091     -0.001246      0.010260
      5.94011      6.33480      6.42049        -0.005091      0.001246     -0.010260
      6.81622      5.54665      2.44934         0.005091     -0.001246     -0.010260
    total drift:                               -0.000000      0.000000     -0.000000

  FREE ENERGIE OF THE ION-ELECTRON SYSTEM (eV)
  free  energy   TOTEN  =      -714.91477293 eV

  energy  without entropy=     -714.91477293  energy(sigma->0) =     -714.91477293

 stress matrix after NEB project (eV)
     -1.25625      0.00000      0.00000
      0.00000     -1.84378      0.00000
     -0.00000      0.00000     -0.70570
  FORCES: max atom, RMS     0.014053    0.010220
  FORCE total and by dimension    0.045703    0.012731
  Stress total and by dimension    2.340020    1.843781

 total charge

# of ion       s       p       d       tot
    1        1.785   4.719   0.018   6.522
    2        1.785   4.719   0.018   6.522
    3        1.785   4.719   0.018   6.522
    4        1.785   4.719   0.018   6.522
    5        1.553   0.418   9.833  11.803
    6        1.553   0.417   9.833  11.803
    7        1.553   0.417   9.833  11.803
    8        1.553   0.418   9.833  11.803
    9        1.614   3.285   0.006   4.904
   10        1.614   3.285   0.006   4.905
   11        1.614   3.285   0.006   4.905
   12        1.614   3.285   0.006   4.904
   13        1.615   3.271   0.006   4.893
   14        1.613   3.294   0.006   4.913
   15        1.613   3.294   0.006   4.913
   16        1.615   3.271   0.006   4.893
   17        1.615   3.271   0.006   4.893
   18        1.613   3.294   0.006   4.913
   19        1.615   3.271   0.006   4.893
   20        1.613   3.294   0.006   4.913
tot         32.723  59.943  39.476 132.142