 vasp.5.4.4.18Apr17-6-g9f103f2a35 (build Jun 22 2020 09:27:21) complex

 INCAR:
 POTCAR:    PAW_PBE Cs_sv 08Apr2002
 POTCAR:    PAW_PBE Pb_d 06Sep2000
 POTCAR:    PAW_PBE Br 06Sep2000
 POTCAR:    PAW_PBE Cs_sv 08Apr2002
   VRHFIN =Cs: 5s5p6s

   TITEL  = PAW_PBE Cs_sv 08Apr2002
   POMASS =  132.900; ZVAL   =    9.000    mass and valenz
   ENMAX  =  220.318; ENMIN  =  165.238 eV

   TITEL  = PAW_PBE Pb_d 06Sep2000
   POMASS =  207.200; ZVAL   =   14.000    mass and valenz
   ENMAX  =  237.835; ENMIN  =  178.376 eV

   TITEL  = PAW_PBE Br 06Sep2000
   POMASS =   79.904; ZVAL   =    7.000    mass and valenz
   ENMAX  =  216.285; ENMIN  =  162.214 eV

 Optimization of the real space projectors (new method)

 maximal supplied QI-value         = 15.12
 optimisation between [QCUT,QGAM] = [  8.77, 17.69] = [ 21.53, 87.61] Ry
 Optimized for a Real-space Cutoff    1.85 Angstroem

   l    n(q)    QCUT    max X(q) W(low)/X(q) W(high)/X(q)  e(spline)
   0     10     8.768    25.322    0.81E-04    0.51E-04    0.48E-06
   0     10     8.768    99.187    0.78E-04    0.50E-04    0.47E-06
   1      9     8.768    11.761    0.21E-03    0.20E-03    0.37E-06
   1      9     8.768     8.275    0.24E-03    0.22E-03    0.41E-06
   2      9     8.768     3.829    0.23E-04    0.15E-03    0.18E-06
 Optimization of the real space projectors (new method)

[...]

   l    n(q)    QCUT    max X(q) W(low)/X(q) W(high)/X(q)  e(spline)
   2      7     8.768     3.846    0.48E-04    0.11E-03    0.11E-06
   2      7     8.768     8.593    0.20E-03    0.22E-04    0.24E-06
   0      8     8.768    20.082    0.68E-04    0.88E-04    0.41E-07
   0      8     8.768     8.597    0.89E-04    0.13E-03    0.59E-07
   1      8     8.768    33.223    0.15E-03    0.53E-04    0.87E-07
   1      8     8.768    15.899    0.14E-03    0.44E-04    0.78E-07
 Optimization of the real space projectors (new method)

 maximal supplied QI-value         = 17.95
 optimisation between [QCUT,QGAM] = [  8.80, 17.59] = [ 21.67, 86.68] Ry
 Optimized for a Real-space Cutoff    1.59 Angstroem

   l    n(q)    QCUT    max X(q) W(low)/X(q) W(high)/X(q)  e(spline)
   0      8     8.797   175.082    0.82E-04    0.14E-03    0.89E-07
   0      8     8.797   174.004    0.79E-04    0.14E-03    0.86E-07
   1      8     8.797    54.315    0.16E-03    0.14E-04    0.30E-06
   1      8     8.797    42.441    0.16E-03    0.14E-04    0.30E-06
   2      7     8.797     3.596    0.92E-04    0.15E-03    0.85E-07
  PAW_PBE Cs_sv 08Apr2002               :
  PAW_PBE Pb_d 06Sep2000                :
  PAW_PBE Br 06Sep2000                  :

 POSCAR: Cs8 Pb8 Br24
  positions in direct lattice

 METAGGA = SCAN     LMAXTAU =  6    LMIXTAU =  F

 VTST: version 3.2, (02/03/18)

 CHAIN: initializing optimizer

 OPT: Using VASP Conjugate-Gradient optimizer
 CHAIN: Read ICHAIN            0

 POSCAR: Cs8 Pb8 Br24
  positions in direct lattice

 ion  position               nearest neighbor table
   1  0.250  0.250  0.250-
   2  0.250  0.250  0.750-
   3  0.250  0.750  0.250-
   4  0.250  0.750  0.750-
   5  0.750  0.250  0.250-
   6  0.750  0.250  0.750-
   7  0.750  0.750  0.250-
   8  0.750  0.750  0.750-
   9  0.000  0.000  0.000-  17 2.93  19 2.93  25 2.93  26 2.93  33 2.93  37 2.93
  10  0.000  0.000  0.500-  18 2.93  20 2.93  25 2.93  26 2.93  34 2.93  38 2.93
  11  0.000  0.500  0.000-  17 2.93  19 2.93  27 2.93  28 2.93  35 2.93  39 2.93
  12  0.000  0.500  0.500-  18 2.93  20 2.93  27 2.93  28 2.93  36 2.93  40 2.93
  13  0.500  0.000  0.000-  21 2.93  23 2.93  29 2.93  30 2.93  33 2.93  37 2.93
  14  0.500  0.000  0.500-  22 2.93  24 2.93  29 2.93  30 2.93  34 2.93  38 2.93
  15  0.500  0.500  0.000-  21 2.93  23 2.93  31 2.93  32 2.93  35 2.93  39 2.93
  16  0.500  0.500  0.500-  22 2.93  24 2.93  31 2.93  32 2.93  36 2.93  40 2.93
  17  0.000  0.250  0.000-   9 2.93  11 2.93
  18  0.000  0.250  0.500-  10 2.93  12 2.93
  19  0.000  0.750  0.000-   9 2.93  11 2.93
  20  0.000  0.750  0.500-  10 2.93  12 2.93
  21  0.500  0.250  0.000-  13 2.93  15 2.93
  22  0.500  0.250  0.500-  14 2.93  16 2.93
  23  0.500  0.750  0.000-  13 2.93  15 2.93
  24  0.500  0.750  0.500-  14 2.93  16 2.93
  25  0.000  0.000  0.250-   9 2.93  10 2.93
  26  0.000  0.000  0.750-   9 2.93  10 2.93
  27  0.000  0.500  0.250-  11 2.93  12 2.93
  28  0.000  0.500  0.750-  11 2.93  12 2.93
  29  0.500  0.000  0.250-  13 2.93  14 2.93
  30  0.500  0.000  0.750-  13 2.93  14 2.93
  31  0.500  0.500  0.250-  15 2.93  16 2.93
  32  0.500  0.500  0.750-  15 2.93  16 2.93
  33  0.250  0.000  0.000-   9 2.93  13 2.93
  34  0.250  0.000  0.500-  10 2.93  14 2.93
  35  0.250  0.500  0.000-  11 2.93  15 2.93
  36  0.250  0.500  0.500-  12 2.93  16 2.93
  37  0.750  0.000  0.000-   9 2.93  13 2.93
  38  0.750  0.000  0.500-  10 2.93  14 2.93
  39  0.750  0.500  0.000-  11 2.93  15 2.93
  40  0.750  0.500  0.500-  12 2.93  16 2.93

  LATTYP: Found a simple cubic cell.
 ALAT       =    11.7353520000

  Lattice vectors:

 A1 = (  11.7353520000,   0.0000000000,   0.0000000000)
 A2 = (   0.0000000000,  11.7353520000,   0.0000000000)
 A3 = (   0.0000000000,   0.0000000000,  11.7353520000)

Analysis of symmetry for initial positions (statically):
 Subroutine PRICEL returns following result:

[...]

   8 primitive cells build up your supercell.

 Routine SETGRP: Setting up the symmetry group for a
 simple cubic supercell.

 Subroutine GETGRP returns: Found 48 space group operations
 (whereof 48 operations were pure point group operations)
 out of a pool of 48 trial point group operations.

The static configuration has the point symmetry O_h .

Analysis of symmetry for dynamics (positions and initial velocities):
 Subroutine PRICEL returns following result:

  LATTYP: Found a simple cubic cell.
 ALAT       =     5.8676760000

  Lattice vectors:

 A1 = (   5.8676760000,   0.0000000000,   0.0000000000)
 A2 = (   0.0000000000,   5.8676760000,   0.0000000000)
 A3 = (   0.0000000000,   0.0000000000,   5.8676760000)

   8 primitive cells build up your supercell.

 Routine SETGRP: Setting up the symmetry group for a
 simple cubic supercell.

 Subroutine GETGRP returns: Found 48 space group operations
 (whereof 48 operations were pure point group operations)
 out of a pool of 48 trial point group operations.

The dynamic configuration has the point symmetry O_h .

 Subroutine INISYM returns: Found 48 space group operations
 (whereof 48 operations are pure point group operations),
 and found     8 'primitive' translations

 KPOINTS: 1x1x1

Automatic generation of k-mesh.
Space group operators:
 irot       det(A)        alpha          n_x          n_y          n_z        tau_x        tau_y        tau_z
    1     1.000000     0.000000     1.000000     0.000000     0.000000     0.000000     0.000000     0.000000
    2    -1.000000     0.000000     1.000000     0.000000     0.000000     0.000000     0.000000     0.000000
    3     1.000000   120.000000    -0.577350    -0.577350    -0.577350     0.000000     0.000000     0.000000
    4    -1.000000   120.000000    -0.577350    -0.577350    -0.577350     0.000000     0.000000     0.000000
    5     1.000000   120.000000     0.577350     0.577350     0.577350     0.000000     0.000000     0.000000
    6    -1.000000   120.000000     0.577350     0.577350     0.577350     0.000000     0.000000     0.000000
    7     1.000000    90.000000     0.000000     0.000000    -1.000000     0.000000     0.000000     0.000000
    8    -1.000000    90.000000     0.000000     0.000000    -1.000000     0.000000     0.000000     0.000000
    9     1.000000   180.000000     0.000000     0.707107     0.707107     0.000000     0.000000     0.000000
   10    -1.000000   180.000000     0.000000     0.707107     0.707107     0.000000     0.000000     0.000000
   11     1.000000    90.000000     0.000000     1.000000     0.000000     0.000000     0.000000     0.000000
   12    -1.000000    90.000000     0.000000     1.000000     0.000000     0.000000     0.000000     0.000000
   13     1.000000   180.000000     0.000000     0.000000     1.000000     0.000000     0.000000     0.000000
   14    -1.000000   180.000000     0.000000     0.000000     1.000000     0.000000     0.000000     0.000000
   15     1.000000   120.000000    -0.577350     0.577350     0.577350     0.000000     0.000000     0.000000
   16    -1.000000   120.000000    -0.577350     0.577350     0.577350     0.000000     0.000000     0.000000
   17     1.000000   120.000000    -0.577350     0.577350    -0.577350     0.000000     0.000000     0.000000
   18    -1.000000   120.000000    -0.577350     0.577350    -0.577350     0.000000     0.000000     0.000000
   19     1.000000    90.000000     0.000000     0.000000     1.000000     0.000000     0.000000     0.000000
   20    -1.000000    90.000000     0.000000     0.000000     1.000000     0.000000     0.000000     0.000000
   21     1.000000    90.000000    -1.000000     0.000000     0.000000     0.000000     0.000000     0.000000
   22    -1.000000    90.000000    -1.000000     0.000000     0.000000     0.000000     0.000000     0.000000
   23     1.000000   180.000000     0.707107     0.000000     0.707107     0.000000     0.000000     0.000000
   24    -1.000000   180.000000     0.707107     0.000000     0.707107     0.000000     0.000000     0.000000
   25     1.000000   120.000000     0.577350    -0.577350     0.577350     0.000000     0.000000     0.000000
   26    -1.000000   120.000000     0.577350    -0.577350     0.577350     0.000000     0.000000     0.000000
   27     1.000000   120.000000    -0.577350    -0.577350     0.577350     0.000000     0.000000     0.000000
   28    -1.000000   120.000000    -0.577350    -0.577350     0.577350     0.000000     0.000000     0.000000
   29     1.000000   180.000000     1.000000     0.000000     0.000000     0.000000     0.000000     0.000000
   30    -1.000000   180.000000     1.000000     0.000000     0.000000     0.000000     0.000000     0.000000
   31     1.000000    90.000000     0.000000    -1.000000     0.000000     0.000000     0.000000     0.000000
   32    -1.000000    90.000000     0.000000    -1.000000     0.000000     0.000000     0.000000     0.000000
   33     1.000000   180.000000     0.707107     0.707107     0.000000     0.000000     0.000000     0.000000
   34    -1.000000   180.000000     0.707107     0.707107     0.000000     0.000000     0.000000     0.000000
   35     1.000000    90.000000     1.000000     0.000000     0.000000     0.000000     0.000000     0.000000
   36    -1.000000    90.000000     1.000000     0.000000     0.000000     0.000000     0.000000     0.000000
   37     1.000000   120.000000     0.577350    -0.577350    -0.577350     0.000000     0.000000     0.000000
   38    -1.000000   120.000000     0.577350    -0.577350    -0.577350     0.000000     0.000000     0.000000
   39     1.000000   180.000000     0.000000     1.000000     0.000000     0.000000     0.000000     0.000000
   40    -1.000000   180.000000     0.000000     1.000000     0.000000     0.000000     0.000000     0.000000
   41     1.000000   120.000000     0.577350     0.577350    -0.577350     0.000000     0.000000     0.000000
[...]
     23     -16.2178      2.00000
     24     -16.2178      2.00000
     25     -16.0489      2.00000
     26     -16.0489      2.00000
     27     -16.0489      2.00000
     28     -16.0489      2.00000
     29     -16.0489      2.00000
     30     -16.0489      2.00000
     31     -16.0489      2.00000
     32     -16.0489      2.00000
     33     -16.0488      2.00000
     34     -16.0488      2.00000
     35     -16.0488      2.00000
     36     -16.0488      2.00000
     37     -16.0488      2.00000
     38     -16.0488      2.00000
     39     -16.0488      2.00000
     40     -16.0488      2.00000
     41     -16.0488      2.00000
     42     -16.0488      2.00000
     43     -16.0488      2.00000
     44     -16.0488      2.00000
     45     -16.0488      2.00000
     46     -16.0488      2.00000
     47     -16.0488      2.00000
     48     -16.0488      2.00000
     49     -14.2070      2.00000
     50     -14.2070      2.00000
     51     -14.2070      2.00000
     52     -14.2070      2.00000
     53     -14.2070      2.00000
     54     -14.2070      2.00000
     55     -14.2070      2.00000
     56     -14.2070      2.00000
     57     -13.8025      2.00000
     58     -13.8025      2.00000
     59     -13.8025      2.00000
     60     -13.8025      2.00000
[...]
    202       6.0354      0.00000
    203       6.0354      0.00000
    204       6.0354      0.00000
    205       6.0354      0.00000
    206       6.0354      0.00000
    207       6.0354      0.00000
    208       6.0354      0.00000
    209       6.5613      0.00000
    210       6.5613      0.00000
    211       6.5613      0.00000
    212       6.5613      0.00000
    213       6.5613      0.00000
    214       6.5613      0.00000
    215       6.5613      0.00000
    216       6.5613      0.00000

 soft charge-density along one line, spin component           1
         0         1         2         3         4         5         6         7         8         9
 total charge-density along one line

------------------------ aborting loop because EDIFF is reached ----------------------------------------

 total charge

# of ion       s       p       d       tot
    1        1.781   4.717   0.010   6.507
    2        1.781   4.717   0.010   6.507
    3        1.781   4.717   0.010   6.507
    4        1.781   4.717   0.010   6.507
    5        1.781   4.717   0.010   6.507
    6        1.781   4.717   0.010   6.507
    7        1.781   4.717   0.010   6.507
    8        1.781   4.717   0.010   6.507
    9        1.555   0.450   9.841  11.847
   10        1.555   0.450   9.841  11.847
   11        1.555   0.450   9.841  11.847
   12        1.555   0.450   9.841  11.847
   13        1.555   0.450   9.841  11.847
   14        1.555   0.450   9.841  11.847
   15        1.555   0.450   9.841  11.847
   16        1.555   0.450   9.841  11.847
   17        1.615   3.289   0.008   4.912
   18        1.615   3.289   0.008   4.912
   19        1.615   3.289   0.008   4.912
   20        1.615   3.289   0.008   4.912
   21        1.615   3.289   0.008   4.912
   22        1.615   3.289   0.008   4.912
   23        1.615   3.289   0.008   4.912
   24        1.615   3.289   0.008   4.912
   25        1.613   3.323   0.006   4.942
   26        1.613   3.323   0.006   4.942
   27        1.613   3.323   0.006   4.942
   28        1.613   3.323   0.006   4.942
   29        1.613   3.323   0.006   4.942
   30        1.613   3.323   0.006   4.942
   31        1.613   3.323   0.006   4.942
   32        1.613   3.323   0.006   4.942
   33        1.618   3.253   0.009   4.880
   34        1.618   3.253   0.009   4.880
   35        1.618   3.253   0.009   4.880
   36        1.618   3.253   0.009   4.880
   37        1.618   3.253   0.009   4.880
   38        1.618   3.253   0.009   4.880
   39        1.618   3.253   0.009   4.880
   40        1.618   3.253   0.009   4.880
tot         65.453 120.261  78.993 264.707

  FORCE on cell =-STRESS in cart. coord.  units (eV):
  Direction    XX          YY          ZZ          XY          YZ          ZX
  Alpha Z   892.99476   892.99476   892.99476
  Ewald   -6063.14382 -6063.14382 -6063.14382     0.00000     0.00000     0.00000
  Hartree  2534.18483  2534.18483  2534.18483    -0.00000    -0.00000    -0.00000
  E(xc)   -1479.14787 -1478.88054 -1478.62978    -0.00000    -0.00000     0.00000
  Local   -3005.89876 -3005.89876 -3005.89876     0.00000    -0.00000     0.00000
  n-local  1810.84867  1808.59651  1806.38377    -0.00000    -0.00000    -0.00000
  augment   811.31965   811.31965   811.31975     0.00000    -0.00009    -0.00009
  Kinetic  4494.90248  4505.76830  4515.94356    -0.00000    -0.00001     0.00000
  Fock        0.00000     0.00000     0.00000     0.00000     0.00000     0.00000
  Total       4.71841     4.71841     4.71841    -0.00000    -0.00000     0.00000
  in kB       4.67754     4.67754     4.67754    -0.00000    -0.00000     0.00000

 VOLUME and BASIS-vectors are now :
  energy-cutoff  :      300.00
  volume of cell :     1616.17
      direct lattice vectors                 reciprocal lattice vectors
    11.735352000  0.000000000  0.000000000     0.085212612  0.000000000  0.000000000
     0.000000000 11.735352000  0.000000000     0.000000000  0.085212612  0.000000000
     0.000000000  0.000000000 11.735352000     0.000000000  0.000000000  0.085212612

  length of vectors
    11.735352000 11.735352000 11.735352000     0.085212612  0.085212612  0.085212612

 FORCES acting on ions
    electron-ion (+dipol)            ewald-force                    non-local-force                 convergence-correction
   -.198E-13 -.679E-12 -.653E-12   0.213E-13 -.409E-13 -.107E-13   -.103E-24 -.349E-24 -.107E-24   0.546E-13 -.352E-14 0.138E-12
   -.258E-13 0.918E-12 -.919E-12   0.151E-13 -.409E-13 -.711E-14   -.246E-24 -.905E-25 0.392E-24   0.202E-14 0.699E-13 -.109E-12
   -.215E-13 0.623E-12 -.617E-12   0.328E-13 -.293E-13 -.142E-13   -.284E-24 0.646E-26 -.449E-24   -.316E-15 0.628E-13 0.142E-12
   0.481E-14 -.905E-12 -.915E-12   -.269E-14 -.364E-13 -.711E-14   -.336E-24 -.116E-24 -.430E-25   -.605E-13 -.108E-13 -.112E-12
   0.161E-13 0.278E-11 -.231E-11   0.242E-13 -.320E-13 -.142E-13   0.152E-24 -.155E-24 -.256E-24   0.223E-13 0.744E-14 0.186E-12
   0.153E-13 0.267E-11 0.807E-12   0.446E-13 -.320E-13 -.711E-14   0.223E-24 0.103E-24 0.495E-26   0.753E-13 0.109E-12 -.158E-12
   0.840E-15 -.558E-12 0.397E-11   0.197E-13 -.426E-13 -.142E-13   0.155E-24 0.207E-24 0.169E-24   0.766E-13 0.471E-13 0.152E-12
   0.173E-13 -.634E-12 -.568E-11   0.268E-13 -.426E-13 -.107E-13   0.310E-24 -.517E-25 0.139E-24   0.137E-12 -.553E-13 -.126E-12
   -.155E-14 -.825E-14 0.102E-13   -.711E-14 0.670E-14 0.355E-13   -.538E-23 -.331E-23 0.431E-24   0.151E-12 -.586E-14 -.238E-12
   0.509E-14 0.861E-15 0.115E-11   0.142E-13 0.670E-14 0.372E-13   -.165E-23 0.103E-23 -.750E-23   0.994E-13 0.324E-13 -.121E-12
   0.515E-14 0.116E-11 0.103E-13   -.231E-13 0.119E-13 0.337E-13   -.165E-23 -.116E-22 0.641E-23   0.965E-13 -.330E-13 -.381E-12
   0.180E-14 0.114E-11 0.115E-11   0.000E+00 0.119E-13 0.639E-13   -.972E-23 -.248E-23 0.151E-23   0.407E-13 -.781E-13 0.198E-13
   0.115E-11 -.188E-13 0.628E-11   0.533E-14 0.137E-14 0.319E-13   0.248E-23 0.331E-23 0.725E-24   -.102E-12 0.102E-12 -.119E-12
   0.114E-11 0.743E-14 -.768E-11   -.338E-13 0.137E-14 0.621E-13   0.182E-22 -.827E-23 0.663E-23   -.502E-13 0.928E-13 -.228E-12
   0.115E-11 -.307E-11 0.188E-11   0.107E-13 0.483E-14 0.301E-13   0.165E-23 0.476E-23 0.570E-24   -.694E-13 -.180E-12 -.287E-12
   0.115E-11 -.150E-11 -.145E-11   0.000E+00 0.483E-14 0.603E-13   0.827E-23 -.827E-23 0.218E-23   -.228E-13 -.166E-12 -.743E-13
   -.154E-14 0.250E-13 -.357E-15   -.355E-14 0.400E-13 0.460E-14   -.429E-23 -.124E-23 0.259E-24   0.810E-13 -.213E-13 -.623E-13
   -.114E-14 0.283E-13 0.117E-12   0.355E-14 0.355E-13 0.902E-14   0.215E-23 0.414E-24 -.122E-23   0.392E-13 0.755E-14 -.242E-13
   -.257E-15 0.844E-13 0.450E-15   -.293E-13 0.364E-13 0.460E-14   0.155E-23 0.879E-24 -.895E-24   0.389E-13 -.356E-13 -.558E-13
   0.211E-15 -.472E-14 0.828E-13   -.249E-13 0.355E-13 0.902E-14   0.300E-23 -.103E-24 0.205E-24   0.293E-13 -.635E-13 -.300E-13
   0.106E-12 -.682E-11 0.124E-11   -.240E-13 0.417E-13 0.282E-14   0.107E-23 0.343E-24 0.139E-23   -.661E-13 -.446E-13 -.171E-13
   0.105E-12 -.382E-11 -.318E-11   -.178E-13 0.426E-13 0.724E-14   0.377E-23 -.233E-24 -.139E-23   -.242E-13 -.822E-14 -.677E-13
   0.105E-12 0.135E-11 0.141E-11   0.888E-14 0.488E-13 0.282E-14   0.000E+00 -.155E-24 -.789E-24   -.240E-13 -.888E-14 -.455E-14
   0.104E-12 0.126E-11 -.239E-11   0.000E+00 0.497E-13 0.724E-14   0.165E-23 0.258E-25 0.677E-25   -.146E-13 -.450E-13 -.801E-13
   -.200E-14 -.269E-14 0.918E-14   -.391E-13 -.166E-13 -.346E-13   -.124E-23 0.310E-23 0.634E-24   0.417E-13 0.183E-13 0.158E-12
   -.936E-15 -.164E-14 0.988E-13   -.462E-13 -.165E-13 -.311E-13   0.266E-23 0.698E-24 0.271E-24   0.734E-13 0.250E-13 -.275E-13
   -.127E-14 0.118E-12 0.130E-13   -.284E-13 -.148E-13 -.355E-13   0.155E-23 -.196E-23 -.228E-24   0.267E-13 -.656E-14 0.187E-12
   -.439E-15 0.845E-13 0.891E-14   -.284E-13 -.148E-13 -.320E-13   -.187E-23 0.171E-23 -.131E-24   0.337E-13 -.138E-13 -.522E-13
   0.105E-12 -.825E-14 -.713E-11   -.213E-13 -.292E-13 -.320E-13   0.227E-23 -.134E-23 -.205E-24   -.289E-13 0.597E-13 0.115E-12
   0.104E-12 0.187E-14 0.196E-11   -.355E-13 -.292E-13 -.320E-13   -.205E-23 0.164E-23 -.102E-24   -.603E-13 0.721E-13 0.125E-13
   0.102E-12 -.182E-11 -.425E-11   -.142E-13 -.132E-13 -.284E-13   -.134E-23 0.124E-23 -.839E-24   -.178E-13 -.546E-13 0.154E-12
   0.101E-12 -.445E-12 -.217E-12   -.213E-13 -.132E-13 -.284E-13   0.163E-23 0.170E-23 -.130E-24   -.256E-13 -.674E-13 -.202E-13
   0.106E-13 -.248E-14 0.671E-12   0.168E-13 0.523E-14 -.581E-14   -.196E-23 -.155E-23 0.456E-24   -.277E-13 0.614E-13 -.192E-13
   0.192E-13 0.175E-14 -.115E-11   0.169E-13 0.970E-14 0.199E-15   0.517E-24 0.290E-23 -.330E-24   -.677E-13 0.578E-13 -.765E-13
   0.827E-14 0.881E-13 -.992E-12   0.276E-13 0.346E-14 -.481E-14   -.292E-23 -.620E-24 -.151E-23   -.504E-13 -.499E-13 -.819E-13
   0.241E-13 0.132E-12 0.424E-12   0.276E-13 0.793E-14 0.119E-14   0.620E-24 0.212E-23 0.526E-24   -.806E-13 -.468E-13 -.169E-13
   0.542E-13 -.416E-13 -.820E-11   0.363E-13 0.678E-14 -.481E-14   0.165E-23 -.238E-23 -.245E-23   -.370E-13 0.194E-13 0.113E-13
   0.461E-13 0.140E-13 0.138E-11   0.364E-13 0.237E-14 0.119E-14   0.000E+00 0.207E-23 0.151E-24   0.207E-14 0.473E-13 -.109E-12
   0.562E-13 -.505E-12 -.975E-12   0.293E-13 0.501E-14 -.471E-14   0.207E-23 0.145E-23 0.210E-24   -.107E-13 -.886E-14 -.759E-13
   0.411E-13 0.513E-11 0.676E-12   0.365E-13 0.415E-14 0.130E-14   -.207E-24 0.377E-23 -.152E-23   0.206E-13 -.377E-13 -.237E-13
   0.580E-11 -.308E-11 -.251E-10   0.541E-13 -.195E-13 0.465E-13   0.224E-22 -.108E-22 0.323E-23   0.300E-12 -.153E-12 -.152E-11

 POSITION                                       TOTAL-FORCE (eV/Angst)
      2.93384      2.93384      2.93384        -0.000000     -0.000000     -0.000000
      2.93384      2.93384      8.80151        -0.000000     -0.000000     -0.000000
      2.93384      8.80151      2.93384        -0.000000     -0.000000     -0.000000
      2.93384      8.80151      8.80151         0.000000      0.000000      0.000000
      8.80151      2.93384      2.93384         0.000000      0.000000      0.000000
      8.80151      2.93384      8.80151        -0.000000     -0.000000      0.000000
      8.80151      8.80151      2.93384         0.000000     -0.000000     -0.000000
      8.80151      8.80151      8.80151         0.000000     -0.000000      0.000000
      0.00000      0.00000      0.00000         0.000000      0.000000      0.000000
      0.00000      0.00000      5.86768         0.000000      0.000000      0.000000
      0.00000      5.86768      0.00000        -0.000000     -0.000000     -0.000000
      0.00000      5.86768      5.86768         0.000000     -0.000000     -0.000000
      5.86768      0.00000      0.00000        -0.000000      0.000000     -0.000000
      5.86768      0.00000      5.86768        -0.000000     -0.000000      0.000000
      5.86768      5.86768      0.00000         0.000000      0.000000      0.000000
      5.86768      5.86768      5.86768         0.000000      0.000000     -0.000000
      0.00000      2.93384      0.00000        -0.000000      0.000000     -0.000000
      0.00000      2.93384      5.86768        -0.000000      0.000000     -0.000000
      0.00000      8.80151      0.00000         0.000000     -0.000000     -0.000000
      0.00000      8.80151      5.86768         0.000000     -0.000000     -0.000000
      5.86768      2.93384      0.00000         0.000000      0.000000     -0.000000
      5.86768      2.93384      5.86768         0.000000      0.000000      0.000000
      5.86768      8.80151      0.00000        -0.000000     -0.000000     -0.000000
      5.86768      8.80151      5.86768        -0.000000     -0.000000     -0.000000
      0.00000      0.00000      2.93384        -0.000000      0.000000      0.000000
      0.00000      0.00000      8.80151         0.000000     -0.000000     -0.000000
      0.00000      5.86768      2.93384        -0.000000     -0.000000     -0.000000
      0.00000      5.86768      8.80151         0.000000      0.000000      0.000000
      5.86768      0.00000      2.93384        -0.000000      0.000000      0.000000
      5.86768      0.00000      8.80151         0.000000      0.000000     -0.000000
      5.86768      5.86768      2.93384        -0.000000     -0.000000      0.000000
      5.86768      5.86768      8.80151        -0.000000     -0.000000     -0.000000
      2.93384      0.00000      0.00000        -0.000000      0.000000      0.000000
      2.93384      0.00000      5.86768         0.000000     -0.000000      0.000000
      2.93384      5.86768      0.00000         0.000000      0.000000     -0.000000
      2.93384      5.86768      5.86768         0.000000     -0.000000     -0.000000
      8.80151      0.00000      0.00000         0.000000     -0.000000      0.000000
      8.80151      0.00000      5.86768         0.000000     -0.000000      0.000000
      8.80151      5.86768      0.00000        -0.000000      0.000000      0.000000
      8.80151      5.86768      5.86768        -0.000000      0.000000     -0.000000
    total drift:                                0.000000     -0.000000     -0.000000

  FREE ENERGIE OF THE ION-ELECTRON SYSTEM (eV)
  free  energy   TOTEN  =     -1428.89641793 eV

  energy  without entropy=    -1428.89641793  energy(sigma->0) =    -1428.89641793

 stress matrix after NEB project (eV)
      4.71841     -0.00000      0.00000
     -0.00000      4.71841     -0.00000
     -0.00000     -0.00000      4.71841
  FORCES: max atom, RMS     0.000000    0.000000
  FORCE total and by dimension    0.000000    0.000000
  Stress total and by dimension    8.172522    4.718408

 total charge

# of ion       s       p       d       tot
    1        1.781   4.717   0.010   6.507
    2        1.781   4.717   0.010   6.507
    3        1.781   4.717   0.010   6.507
    4        1.781   4.717   0.010   6.507
    5        1.781   4.717   0.010   6.507
    6        1.781   4.717   0.010   6.507
    7        1.781   4.717   0.010   6.507
    8        1.781   4.717   0.010   6.507
    9        1.555   0.450   9.841  11.847
   10        1.555   0.450   9.841  11.847
   11        1.555   0.450   9.841  11.847
   12        1.555   0.450   9.841  11.847
   13        1.555   0.450   9.841  11.847
   14        1.555   0.450   9.841  11.847
   15        1.555   0.450   9.841  11.847
   16        1.555   0.450   9.841  11.847
   17        1.615   3.289   0.008   4.912
   18        1.615   3.289   0.008   4.912
   19        1.615   3.289   0.008   4.912
   20        1.615   3.289   0.008   4.912
   21        1.615   3.289   0.008   4.912
   22        1.615   3.289   0.008   4.912
   23        1.615   3.289   0.008   4.912
   24        1.615   3.289   0.008   4.912
   25        1.613   3.323   0.006   4.942
   26        1.613   3.323   0.006   4.942
   27        1.613   3.323   0.006   4.942
   28        1.613   3.323   0.006   4.942
   29        1.613   3.323   0.006   4.942
   30        1.613   3.323   0.006   4.942
   31        1.613   3.323   0.006   4.942
   32        1.613   3.323   0.006   4.942
   33        1.618   3.253   0.009   4.880
   34        1.618   3.253   0.009   4.880
   35        1.618   3.253   0.009   4.880
   36        1.618   3.253   0.009   4.880
   37        1.618   3.253   0.009   4.880
   38        1.618   3.253   0.009   4.880
   39        1.618   3.253   0.009   4.880
   40        1.618   3.253   0.009   4.880
tot         65.453 120.261  78.993 264.707