 vasp.5.4.4.18Apr17-6-g9f103f2a35 (build Jun 22 2020 09:36:46) gamma-only

 INCAR:
 POTCAR:    PAW_PBE Cs_sv 08Apr2002
 POTCAR:    PAW_PBE Pb_d 06Sep2000
 POTCAR:    PAW_PBE Br 06Sep2000
 POTCAR:    PAW_PBE Cs_sv 08Apr2002
 POTCAR:    PAW_PBE Pb_d 06Sep2000
 POTCAR:    PAW_PBE Br 06Sep2000
 POTCAR:    PAW_PBE Cs_sv 08Apr2002
   VRHFIN =Cs: 5s5p6s

   TITEL  = PAW_PBE Cs_sv 08Apr2002
   POMASS =  132.900; ZVAL   =    9.000    mass and valenz
   ENMAX  =  220.318; ENMIN  =  165.238 eV

   TITEL  = PAW_PBE Pb_d 06Sep2000
   POMASS =  207.200; ZVAL   =   14.000    mass and valenz
   ENMAX  =  237.835; ENMIN  =  178.376 eV

   TITEL  = PAW_PBE Br 06Sep2000
   POMASS =   79.904; ZVAL   =    7.000    mass and valenz
   ENMAX  =  216.285; ENMIN  =  162.214 eV

   TITEL  = PAW_PBE Cs_sv 08Apr2002
   POMASS =  132.900; ZVAL   =    9.000    mass and valenz
   ENMAX  =  220.318; ENMIN  =  165.238 eV

   TITEL  = PAW_PBE Pb_d 06Sep2000
   POMASS =  207.200; ZVAL   =   14.000    mass and valenz
   ENMAX  =  237.835; ENMIN  =  178.376 eV

   TITEL  = PAW_PBE Br 06Sep2000
   POMASS =   79.904; ZVAL   =    7.000    mass and valenz
   ENMAX  =  216.285; ENMIN  =  162.214 eV

 Optimization of the real space projectors (new method)

 maximal supplied QI-value         = 15.12
 optimisation between [QCUT,QGAM] = [  8.77, 17.69] = [ 21.53, 87.61] Ry
 Optimized for a Real-space Cutoff    1.85 Angstroem

   l    n(q)    QCUT    max X(q) W(low)/X(q) W(high)/X(q)  e(spline)
   0     10     8.768    25.322    0.81E-04    0.51E-04    0.48E-06
   0     10     8.768    99.187    0.78E-04    0.50E-04    0.47E-06
   1      9     8.768    11.761    0.21E-03    0.20E-03    0.37E-06
   1      9     8.768     8.275    0.24E-03    0.22E-03    0.41E-06
   2      9     8.768     3.829    0.23E-04    0.15E-03    0.18E-06
 Optimization of the real space projectors (new method)

[...]

   l    n(q)    QCUT    max X(q) W(low)/X(q) W(high)/X(q)  e(spline)
   2      7     8.768     3.846    0.48E-04    0.11E-03    0.11E-06
   2      7     8.768     8.593    0.20E-03    0.22E-04    0.24E-06
   0      8     8.768    20.082    0.68E-04    0.88E-04    0.41E-07
   0      8     8.768     8.597    0.89E-04    0.13E-03    0.59E-07
   1      8     8.768    33.223    0.15E-03    0.53E-04    0.87E-07
   1      8     8.768    15.899    0.14E-03    0.44E-04    0.78E-07
 Optimization of the real space projectors (new method)

 maximal supplied QI-value         = 17.95
 optimisation between [QCUT,QGAM] = [  8.80, 17.59] = [ 21.67, 86.68] Ry
 Optimized for a Real-space Cutoff    1.59 Angstroem

   l    n(q)    QCUT    max X(q) W(low)/X(q) W(high)/X(q)  e(spline)
   0      8     8.797   175.082    0.82E-04    0.14E-03    0.89E-07
   0      8     8.797   174.004    0.79E-04    0.14E-03    0.86E-07
   1      8     8.797    54.315    0.16E-03    0.14E-04    0.30E-06
   1      8     8.797    42.441    0.16E-03    0.14E-04    0.30E-06
   2      7     8.797     3.596    0.92E-04    0.15E-03    0.85E-07
  PAW_PBE Cs_sv 08Apr2002               :
  PAW_PBE Pb_d 06Sep2000                :
  PAW_PBE Br 06Sep2000                  :
  PAW_PBE Cs_sv 08Apr2002               :
  PAW_PBE Pb_d 06Sep2000                :
  PAW_PBE Br 06Sep2000                  :

 POSCAR: Cs63 Pb64 Br192
  positions in direct lattice
  velocities in cartesian coordinates

 METAGGA = SCAN     LMAXTAU =  6    LMIXTAU =  F

 VTST: version 3.2, (02/03/18)

 CHAIN: initializing optimizer

 OPT: Using VASP Conjugate-Gradient optimizer
 CHAIN: Read ICHAIN            0

 POSCAR: Cs63 Pb64 Br192
  positions in direct lattice
  velocities in cartesian coordinates

 ion  position               nearest neighbor table
   1  0.886  0.875  0.354-
   2  0.137  0.875  0.604-
   3  0.886  0.375  0.354-
   4  0.138  0.376  0.604-
   5  0.887  0.875  0.854-
   6  0.137  0.875  0.104-
   7  0.388  0.875  0.355-
   8  0.636  0.875  0.603-
   9  0.887  0.375  0.854-
  10  0.137  0.376  0.103-
  11  0.386  0.875  0.854-
  12  0.636  0.875  0.104-
  13  0.386  0.376  0.854-
  14  0.636  0.376  0.105-
  15  0.107  0.125  0.387-
  16  0.354  0.125  0.636-
  17  0.111  0.625  0.387-
  18  0.104  0.125  0.886-
  19  0.354  0.126  0.138-
  20  0.604  0.125  0.386-
  21  0.854  0.125  0.636-
  22  0.104  0.625  0.887-
  23  0.353  0.626  0.140-
  24  0.854  0.625  0.636-
  25  0.604  0.125  0.887-
  26  0.854  0.125  0.136-
  27  0.603  0.626  0.887-
  28  0.854  0.625  0.136-
  29  0.897  0.875  0.114-
  30  0.145  0.876  0.364-
  31  0.897  0.375  0.114-
  32  0.145  0.375  0.364-
  33  0.897  0.875  0.614-
  34  0.147  0.875  0.864-
  35  0.397  0.875  0.115-
  36  0.646  0.875  0.364-
  37  0.897  0.376  0.614-
  38  0.147  0.375  0.864-
  39  0.397  0.376  0.114-
  40  0.397  0.876  0.614-
  41  0.647  0.875  0.864-
  42  0.646  0.375  0.864-
  43  0.114  0.125  0.147-
  44  0.364  0.127  0.396-
  45  0.118  0.625  0.149-
  46  0.114  0.125  0.647-
  47  0.364  0.125  0.897-
  48  0.614  0.125  0.147-
  49  0.864  0.125  0.396-
  50  0.115  0.625  0.645-
  51  0.364  0.625  0.897-
  52  0.614  0.625  0.146-
  53  0.865  0.625  0.397-
  54  0.614  0.125  0.646-
  55  0.864  0.125  0.897-
  56  0.864  0.625  0.896-
  57  0.750  0.750  0.250- 143 2.99 310 3.00 203 3.00 132 3.01 225 3.01 252 3.01
  58  0.002  0.750  0.500- 226 2.98 144 2.98 241 3.00 133 3.01 200 3.01 220 3.04
  59  0.750  0.251  0.250- 141 2.99 136 3.00 216 3.00 207 3.01 227 3.01 250 3.01
  60  0.000  0.251  0.500- 142 2.99 137 3.00 228 3.00 239 3.01 217 3.01 204 3.01
  61  0.750  0.751  0.750- 149 2.99 315 3.00 138 3.00 223 3.01 229 3.01 209 3.01
  62  0.000  0.750  0.000- 150 2.99 197 3.00 230 3.00 139 3.01 224 3.01 247 3.01
  63  0.251  0.750  0.253- 300 2.95 198 2.97 231 3.01 213 3.02 127 3.04 248 3.05
  64  0.499  0.749  0.500- 314 2.97 301 2.98 311 2.99 128 3.03 232 3.05 208 3.05
  65  0.750  0.251  0.750- 145 2.99 298 3.00 246 3.00 221 3.01 233 3.01 210 3.01
  66  0.000  0.250  0.000- 146 2.99 140 3.00 199 3.00 234 3.01 243 3.01 222 3.01
  67  0.250  0.750  0.750- 242 2.98 153 2.99 130 3.00 236 3.00 218 3.01 201 3.02
  68  0.500  0.750  0.001- 154 2.99 202 2.99 219 3.01 131 3.01 237 3.02 251 3.02
  69  0.250  0.250  0.750- 134 2.99 151 2.99 240 3.00 312 3.00 205 3.01 214 3.01
  70  0.500  0.251  0.000- 152 2.99 135 3.00 206 3.01 249 3.01 215 3.01 238 3.01
  71  0.000  0.750  0.250- 115 2.99 213 2.99 241 3.00 155 3.01 197 3.01 225 3.01
  72  0.254  0.749  0.500- 116 2.95 311 2.97 198 2.98 156 3.05 242 3.05 226 3.06
  73  0.000  0.250  0.250- 113 2.99 157 2.99 211 3.00 239 3.01 199 3.01 227 3.01
  74  0.000  0.750  0.750- 121 2.99 218 3.00 200 3.00 158 3.01 247 3.01 229 3.01
  75  0.250  0.750  0.001- 122 2.99 248 3.00 219 3.01 159 3.01 201 3.01 230 3.02
  76  0.499  0.750  0.253- 314 2.95 123 2.97 231 3.00 310 3.02 160 3.03 202 3.08
  77  0.750  0.751  0.500- 297 2.98 232 2.99 203 3.01 161 3.01 315 3.01 220 3.02
  78  0.000  0.251  0.750- 117 2.99 162 3.00 214 3.00 204 3.01 233 3.01 243 3.01
  79  0.250  0.250  0.000- 118 2.99 163 2.99 244 3.01 205 3.01 215 3.01 234 3.01
  80  0.750  0.250  0.500- 120 2.99 313 3.00 164 3.00 207 3.01 217 3.01 246 3.01
  81  0.500  0.751  0.750- 296 2.99 208 2.99 236 3.00 165 3.01 251 3.02 223 3.02
  82  0.750  0.750  0.000- 126 2.99 237 3.00 166 3.00 252 3.01 209 3.01 224 3.01
  83  0.500  0.250  0.750- 124 2.99 167 3.00 308 3.00 312 3.01 221 3.01 249 3.01
  84  0.750  0.251  0.000- 125 2.99 168 3.00 238 3.00 250 3.01 222 3.01 210 3.01
  85  0.000  0.001  0.250- 155 2.99 113 3.00 253 3.00 183 3.01 169 3.01 267 3.01
  86  0.251  1.000  0.500- 156 2.96 254 3.01 268 3.01 170 3.01 184 3.02 114 3.02
  87  0.001  0.501  0.250- 255 2.99 115 2.99 157 3.00 185 3.00 269 3.02 171 3.02
  88  0.000  0.000  0.750- 158 2.99 117 3.00 256 3.01 270 3.01 173 3.01 187 3.01
  89  0.250  0.001  0.000- 159 2.99 118 3.00 188 3.00 271 3.01 257 3.01 174 3.01
  90  0.500  0.001  0.250- 160 2.98 175 3.00 189 3.01 119 3.01 272 3.01 258 3.01
  91  0.750  0.000  0.500- 161 2.99 176 3.00 120 3.00 273 3.01 259 3.01 190 3.01
  92  0.000  0.501  0.750- 162 3.00 121 3.00 260 3.00 274 3.01 177 3.01 191 3.01
  93  0.250  0.501  0.001- 192 2.99 163 3.00 122 3.00 261 3.01 178 3.02 275 3.02
  94  0.751  0.501  0.500- 305 2.97 297 2.99 164 3.00 277 3.01 307 3.01 262 3.03
  95  0.500  0.000  0.750- 165 2.99 124 3.00 180 3.00 278 3.00 193 3.01 263 3.01
  96  0.750  0.000  0.000- 166 2.99 125 3.00 181 3.00 194 3.01 264 3.01 279 3.01
  97  0.500  0.501  0.750- 304 3.00 296 3.00 318 3.00 167 3.00 195 3.01 265 3.02
  98  0.750  0.500  0.000- 168 2.99 182 3.00 126 3.00 196 3.01 280 3.01 266 3.01
  99  0.750  0.000  0.250- 132 2.99 258 3.00 141 3.01 273 3.01 169 3.01 194 3.01
 100  0.000  0.001  0.500- 133 2.98 170 3.00 142 3.01 183 3.01 259 3.01 270 3.01
 101  0.750  0.501  0.250- 136 3.00 316 3.00 143 3.00 277 3.01 196 3.01 171 3.01
 102  0.003  0.501  0.500- 172 2.99 144 2.99 137 3.00 185 3.01 274 3.01 262 3.03
 103  0.750  0.001  0.750- 138 2.99 190 3.00 145 3.00 263 3.01 279 3.01 173 3.01
 104  0.000  0.000  0.000- 139 2.99 267 3.00 146 3.00 174 3.01 264 3.01 187 3.01
 105  0.250  1.000  0.250- 127 2.96 268 3.00 175 3.01 253 3.01 188 3.02 147 3.03
 106  0.500  0.000  0.500- 128 2.97 254 3.00 189 3.01 148 3.01 278 3.01 176 3.01
 107  0.750  0.500  0.750- 298 2.99 307 2.99 149 3.00 265 3.01 280 3.01 177 3.01
 108  0.000  0.501  0.000- 269 3.00 150 3.00 140 3.00 178 3.00 266 3.01 191 3.01
 109  0.250  0.000  0.750- 130 2.98 184 3.00 151 3.00 180 3.01 256 3.01 271 3.01
 110  0.500  0.001  0.000- 131 2.99 272 3.00 152 3.01 193 3.01 257 3.01 181 3.01
 111  0.250  0.501  0.750- 186 2.98 134 3.00 153 3.00 304 3.01 260 3.01 275 3.02
 112  0.500  0.501  0.001- 276 2.99 135 3.00 154 3.00 261 3.01 182 3.02 195 3.02
 113  0.984  0.126  0.230-  73 2.99  85 3.00
 114  0.237  0.126  0.483- 291 3.01  86 3.02
 115  0.986  0.626  0.229-  71 2.99  87 2.99
 116  0.235  0.626  0.488-  72 2.95 293 2.96
[...]
 266  0.876  0.518  0.026- 108 3.01  98 3.01
 267  0.026  0.982  0.126- 104 3.00  85 3.01
 268  0.276  0.983  0.376- 105 3.00  86 3.01
 269  0.026  0.482  0.126- 108 3.00  87 3.02
 270  0.026  0.982  0.626-  88 3.01 100 3.01
 271  0.276  0.982  0.876- 109 3.01  89 3.01
 272  0.526  0.983  0.126- 110 3.00  90 3.01
 273  0.776  0.982  0.376-  99 3.01  91 3.01
 274  0.027  0.482  0.626-  92 3.01 102 3.01
 275  0.276  0.483  0.876-  93 3.02 111 3.02
 276  0.526  0.482  0.126- 112 2.99 292 3.08
 277  0.777  0.483  0.376- 101 3.01  94 3.01
 278  0.527  0.983  0.626-  95 3.00 106 3.01
 279  0.776  0.982  0.876- 103 3.01  96 3.01
 280  0.776  0.482  0.876-  98 3.01 107 3.01
 281  0.390  0.377  0.358-
 282  0.636  0.376  0.602-
 283  0.603  0.626  0.388-
 284  0.354  0.625  0.635-
 285  0.400  0.375  0.615-
 286  0.646  0.378  0.366-
 287  0.617  0.625  0.651-
 288  0.250  0.252  0.250- 129 2.98 235 3.01 309 3.01 147 3.01 244 3.01 211 3.02
 289  0.500  0.251  0.500- 299 2.98 148 3.00 245 3.00 212 3.01 313 3.01 308 3.01
 290  0.500  0.252  0.250- 302 2.98 235 3.00 119 3.00 206 3.01 245 3.01 216 3.01
 291  0.251  0.252  0.500- 303 2.97 309 3.01 114 3.01 212 3.01 228 3.01 240 3.02
 292  0.500  0.502  0.253- 306 2.94 123 2.98 179 2.99 302 3.02 316 3.02 276 3.08
[...]
   0.250E+02 -.781E+01 0.676E+01   -.248E+02 0.794E+01 -.675E+01   -.176E+00 -.124E+00 -.296E-01   -.533E-03 -.719E-03 -.241E-03
   0.257E+02 0.207E+01 0.130E+02   -.256E+02 -.210E+01 -.131E+02   -.897E-01 0.224E-01 0.873E-01   0.296E-03 -.173E-03 -.135E-03
   0.280E+02 0.228E+01 0.108E+02   -.279E+02 -.229E+01 -.109E+02   -.927E-01 0.140E-01 0.583E-01   0.577E-03 0.625E-04 0.135E-04
   0.343E+02 0.682E+01 0.705E+01   -.342E+02 -.688E+01 -.708E+01   -.528E-01 0.488E-01 0.347E-01   0.201E-03 -.891E-04 0.108E-03
   0.316E+02 0.667E+01 0.172E+02   -.316E+02 -.671E+01 -.173E+02   -.489E-01 0.293E-01 0.823E-01   0.212E-03 0.328E-05 0.332E-04
   0.258E+02 -.187E+01 0.130E+02   -.257E+02 0.192E+01 -.131E+02   -.924E-01 -.336E-01 0.797E-01   0.102E-03 0.329E-03 -.161E-03
   0.278E+02 -.234E+01 0.111E+02   -.277E+02 0.237E+01 -.111E+02   -.923E-01 -.256E-01 0.586E-01   0.217E-04 0.166E-03 0.825E-05
   0.342E+02 -.593E+01 0.688E+01   -.342E+02 0.599E+01 -.691E+01   -.490E-01 -.565E-01 0.301E-01   0.357E-03 -.195E-06 0.570E-04
   0.222E+02 0.517E+01 0.168E+02   -.221E+02 -.531E+01 -.170E+02   -.107E+00 0.153E+00 0.175E+00   -.431E-03 -.245E-03 -.107E-03
   0.295E+02 0.521E+00 0.122E+02   -.294E+02 -.537E+00 -.123E+02   -.667E-01 0.177E-01 0.920E-01   -.378E-03 -.402E-04 -.202E-03
   0.295E+02 -.354E+00 0.118E+02   -.294E+02 0.389E+00 -.119E+02   -.719E-01 -.289E-01 0.858E-01   0.572E-04 0.154E-04 0.702E-04
   -.283E+02 0.779E-01 0.896E+01   0.282E+02 -.656E-01 -.900E+01   0.727E-01 -.759E-02 0.414E-01   -.857E-04 -.180E-03 0.133E-03
   -.287E+02 0.768E+00 0.138E+02   0.286E+02 -.766E+00 -.139E+02   0.109E+00 -.508E-02 0.101E+00   -.567E-03 -.619E-03 0.215E-04
   -.286E+02 0.260E+00 0.578E+01   0.286E+02 -.261E+00 -.573E+01   0.682E-01 0.338E-02 -.617E-01   0.162E-03 -.428E-04 0.290E-03
   -.293E+02 0.314E-01 0.135E+02   0.293E+02 -.189E-01 -.136E+02   0.498E-01 -.801E-02 0.682E-01   0.474E-03 -.541E-03 0.779E-04
   -.268E+02 0.140E+00 0.104E+02   0.267E+02 -.131E+00 -.104E+02   0.819E-01 -.535E-02 0.783E-01   0.112E-04 -.313E-03 -.352E-03
   -.250E+02 -.332E+00 0.130E+02   0.249E+02 0.347E+00 -.130E+02   0.903E-01 -.886E-02 0.757E-01   0.315E-03 -.274E-03 0.828E-04
   -.290E+02 0.377E-02 0.115E+02   0.289E+02 0.918E-02 -.115E+02   0.738E-01 -.844E-02 0.695E-01   0.283E-03 -.938E-04 0.369E-03
   -.345E+02 0.156E-01 0.126E+02   0.345E+02 -.302E-02 -.126E+02   -.762E-02 -.539E-02 0.708E-01   0.191E-03 0.535E-03 0.320E-03
   -.250E+02 -.911E-01 0.113E+02   0.249E+02 0.997E-01 -.113E+02   0.552E-01 -.449E-02 0.566E-01   -.237E-03 0.195E-03 -.372E-03
   -.157E+02 0.188E+00 0.109E+02   0.156E+02 -.172E+00 -.111E+02   0.169E+00 -.971E-02 0.108E+00   -.196E-03 -.847E-04 -.323E-04
   -.303E+02 -.252E+00 0.112E+02   0.303E+02 0.258E+00 -.112E+02   0.860E-01 -.377E-02 0.446E-01   0.250E-03 -.110E-03 0.130E-03
   -.288E+02 0.811E+00 0.129E+02   0.287E+02 -.796E+00 -.131E+02   0.839E-01 -.114E-01 0.102E+00   -.376E-04 -.283E-03 0.124E-03
   -.277E+02 -.124E+00 0.118E+02   0.277E+02 0.133E+00 -.119E+02   0.746E-01 -.520E-02 0.725E-01   0.613E-04 -.147E-03 0.583E-04
   -.287E+02 0.101E+00 0.100E+02   0.286E+02 -.920E-01 -.101E+02   0.800E-01 -.484E-02 0.698E-01   0.220E-03 -.528E-03 -.533E-04
   0.893E+01 0.282E+01 0.451E+01   -.881E+01 -.259E+01 -.462E+01   -.104E+00 -.233E+00 0.974E-01   0.167E-03 0.185E-03 0.290E-03
   -.864E+01 0.548E+01 0.797E+00   0.811E+01 -.527E+01 -.110E+01   0.529E+00 -.213E+00 0.303E+00   0.453E-03 0.541E-03 -.159E-03
   0.216E+01 -.587E+01 0.177E+01   -.206E+01 0.596E+01 -.181E+01   -.937E-01 -.877E-01 0.412E-01   -.678E-04 0.248E-03 0.720E-03
   -.141E+01 -.312E+01 0.594E+00   0.125E+01 0.313E+01 -.641E+00   0.158E+00 -.183E-01 0.344E-01   -.141E-03 -.498E-03 -.296E-03
[...]
   0.663E+02 -.657E+02 0.535E+02   -.667E+02 0.662E+02 -.539E+02   0.403E+00 -.370E+00 0.363E+00   -.228E-03 0.379E-03 0.214E-03
   0.170E+02 -.178E+02 0.298E+02   -.172E+02 0.179E+02 -.301E+02   0.174E+00 -.176E+00 0.241E+00   -.219E-03 -.175E-04 0.333E-04
   -.226E+02 -.183E+02 -.235E+02   0.228E+02 0.184E+02 0.238E+02   -.233E+00 -.159E+00 -.240E+00   -.462E-03 0.151E-03 0.997E-04
   -.243E+02 -.240E+02 -.269E+02   0.245E+02 0.242E+02 0.271E+02   -.217E+00 -.191E+00 -.241E+00   0.780E-04 -.136E-03 0.115E-05
   0.320E+02 0.228E+02 -.182E+02   -.322E+02 -.229E+02 0.184E+02   0.212E+00 0.176E+00 -.190E+00   0.337E-03 0.234E-04 0.189E-03
   -.668E+01 0.501E+02 0.416E+01   0.641E+01 -.502E+02 -.379E+01   0.264E+00 0.114E+00 -.342E+00   0.293E-03 0.153E-04 0.219E-03
   -.211E+02 -.191E+02 0.266E+02   0.213E+02 0.193E+02 -.268E+02   -.192E+00 -.182E+00 0.226E+00   0.572E-03 -.240E-03 0.112E-03
   -.214E+02 -.191E+02 0.298E+02   0.216E+02 0.193E+02 -.300E+02   -.189E+00 -.177E+00 0.253E+00   0.523E-03 0.565E-04 0.103E-03
   0.661E+02 0.653E+02 0.537E+02   -.665E+02 -.657E+02 -.541E+02   0.398E+00 0.387E+00 0.367E+00   -.398E-03 -.170E-03 0.182E-04
   0.176E+02 0.182E+02 0.307E+02   -.178E+02 -.184E+02 -.309E+02   0.184E+00 0.189E+00 0.249E+00   0.793E-04 0.659E-03 0.197E-03
   0.318E+02 -.244E+02 -.188E+02   -.320E+02 0.245E+02 0.190E+02   0.219E+00 -.194E+00 -.207E+00   0.349E-03 -.297E-03 0.280E-05
   -.335E+01 -.492E+02 0.678E+01   0.304E+01 0.493E+02 -.646E+01   0.302E+00 -.876E-01 -.313E+00   0.448E-04 0.773E-03 -.217E-03
   -.278E+02 0.115E+02 -.144E+02   0.280E+02 -.116E+02 0.146E+02   -.274E+00 0.157E+00 -.202E+00   -.220E-03 0.457E-03 0.448E-04
   -.333E+02 -.226E+02 -.488E+02   0.335E+02 0.223E+02 0.490E+02   -.138E+00 0.304E+00 -.216E+00   -.179E-03 0.565E-03 0.295E-03
   0.183E+01 0.703E+01 -.216E+01   0.104E-11 -.242E-12 -.204E-11   -.189E+01 -.740E+01 0.976E+00   0.588E-03 0.353E-02 -.156E-02

 POSITION                                       TOTAL-FORCE (eV/Angst)
      8.96439     20.58807     20.04081        -0.000362     -0.000816     -0.000973
     -7.86458     20.58408     11.96552         0.000031     -0.000203     -0.000396
      8.96571      8.83365     20.04227        -0.000873      0.001170     -0.001199
     -7.84790      8.84150     11.99458        -0.000700     -0.000101     -0.001822
      0.55171     20.59152     28.12062        -0.000662      0.000345     -0.000768
      0.55633     20.58722      3.89093        -0.000435      0.000686      0.000894
      0.55556     20.58196     12.01510        -0.001257      0.000972      0.005564
      0.55590     20.59365     20.02859        -0.001683     -0.001257     -0.001774
      0.55010      8.83040     28.12238         0.000039      0.000250     -0.000297
      0.55661      8.83616      3.87813        -0.000814      0.000466      0.000895
     -7.88331     20.58424     20.04129        -0.000125      0.000095     -0.001683
      8.94912     20.58435     11.96006         0.000343     -0.000573     -0.000730
     -7.87815      8.83766     20.03448         0.000812      0.000077     -0.000566
      8.95035      8.84076     11.96477        -0.000345     -0.000839     -0.001820
     -4.72443      2.94803      7.98510        -0.000874     -0.000241      0.000383
     -4.75410      2.95223     15.98563         0.000394     -0.000601     -0.000667
     -4.65209     14.70872      8.04807        -0.004457      0.001507     -0.001449
    -13.17691      2.94740     15.99682         0.001431     -0.000045     -0.000822
      3.63161      2.95425      7.95590         0.000491      0.000641     -0.000763
      3.66274      2.95219     15.99450         0.001182     -0.000633     -0.001554
      3.66450      2.94828     24.07697         0.002094     -0.000273     -0.001403
    -13.17562     14.71149     16.00690         0.001729     -0.001080     -0.000243
      3.59879     14.71755      7.96141         0.000356      0.000594     -0.001055
      3.67644     14.71213     24.07314         0.001790     -0.000312     -0.001356
     -4.76181      2.94673     24.08049         0.001620      0.000763     -0.001523
     12.08043      2.94803     15.99441         0.000609     -0.000561     -0.000196
     -4.76969     14.71652     24.07256         0.000619     -0.000936     -0.000552
     12.09312     14.71044     16.00479         0.000281     -0.000344     -0.000151
     13.17709     20.58754     16.33805        -0.000830      0.001086      0.000507
     -3.68632     20.60133      8.23639        -0.001049      0.000907     -0.001457
     13.17862      8.83392     16.34094        -0.000618     -0.000709      0.000471
     -3.68429      8.83088      8.22713        -0.002800     -0.003615     -0.000713
      4.76988     20.58473     24.41224        -0.000404     -0.001201     -0.000319
    -12.08059     20.58768     16.33824        -0.000368     -0.000507      0.000356
      4.74825     20.57979      8.25992        -0.000708     -0.000053      0.000445
      4.74293     20.58160     16.32186         0.000484      0.000006     -0.000216
      4.77404      8.83921     24.40870         0.000927      0.002307     -0.000531
    -12.07825      8.83412     16.34052        -0.001194      0.000184      0.000795
      4.75308      8.85527      8.25528        -0.000168      0.000063      0.000165
     -3.65588     20.61257     16.34583        -0.000868     -0.000850      0.001837
     -3.66449     20.59045     24.40972        -0.001018      0.000034     -0.000613
     -3.66923      8.83213     24.39891         0.000515     -0.000887      0.000965
     -0.54664      2.94850      4.22199         0.001246     -0.000610      0.000560
     -0.53836      2.97724     12.28915        -0.001760     -0.008066      0.000275
     -0.51968     14.71008      4.32143         0.000674     -0.000312      0.000890
     -8.96155      2.94899     12.29206         0.001829     -0.001788      0.000171
     -8.96897      2.94823     20.36822        -0.000017     -0.001702     -0.000891
      7.85635      2.95021     12.29772         0.001941     -0.000042      0.000869
      7.87849      2.94800     20.36876        -0.000309     -0.000642      0.001249
     -8.92620     14.71390     12.29122         0.002489      0.001904      0.003805
     -8.96684     14.71001     20.37171        -0.001601      0.000767     -0.002001
      7.88359     14.71340     12.28974        -0.001154     -0.000141      0.001066
      7.88275     14.71015     20.39493         0.001669     -0.000783     -0.000648
     -0.54585      2.94676     20.36055         0.000160     -0.000497      0.001422
     -0.54790      2.94635     28.45174         0.000761      0.000030      0.000377
     -0.54541     14.71066     28.44009         0.000910     -0.000690      0.001040
      8.41522     17.65038     16.16193         0.001550     -0.000678      0.002664
     -8.38270     17.65303      8.10761         0.003579      0.000494      0.002379
      8.41590      5.89887     16.15977        -0.000015      0.000043      0.002565
     -8.41625      5.89702      8.08650        -0.001774     -0.001037     -0.000747
[...]
      2.52565     11.39625     17.80967        -0.003137     -0.001680     -0.004351
      1.69488     12.19709     13.74687        -0.001321      0.001303     -0.000023
      1.71376     12.19947     21.82520        -0.002864      0.000087     -0.001647
     -1.67136      6.28942     18.64604        -0.001923      0.002998      0.001388
     -1.68040      6.35325     10.55116         0.002416      0.001588      0.001390
      5.90214     17.22461     14.58413         0.002281     -0.000707      0.003074
     -2.63789     17.41080     14.72752         0.002775      0.001510      0.001666
     -5.90560      6.30506     17.75663         0.006146     -0.001345     -0.000281
      2.53051      6.30380     17.75491         0.002845      0.000708      0.001501
      1.69576     17.24227     13.74302        -0.002063     -0.000103      0.000041
      1.69635     17.22813     21.80435         0.001096      0.006963      0.003758
      5.89326     12.24334     14.60584         0.003334     -0.002716      0.000264
     -2.62264     12.01684     14.74997        -0.001310      0.003512     -0.002777
     -1.65034     11.38873     18.67613        -0.003325     -0.000411     -0.001964
     -1.77918     11.13901     10.46726        -0.001960      0.004430      0.000482
    total drift:                               -0.067169     -0.366129     -1.181111

  FREE ENERGIE OF THE ION-ELECTRON SYSTEM (eV)
  free  energy   TOTEN  =    -11395.71456770 eV

  energy  without entropy=   -11395.71456770  energy(sigma->0) =   -11395.71456770

 d Force = 0.1787151E-03[ 0.158E-03, 0.199E-03]  d Energy = 0.1736698E-03 0.505E-05
 d Force = 0.4523119E-01[ 0.444E-01, 0.460E-01]  d Ewald  = 0.4522929E-01 0.190E-05

 stress matrix after NEB project (eV)
     -4.61041     -0.00345     -0.01979
     -0.00345     -5.27337      0.04706
     -0.01982      0.04706     -8.37935
  FORCES: max atom, RMS     0.008884    0.002951
  FORCE total and by dimension    0.052704    0.008066
  Stress total and by dimension   10.921681    8.379353
 Steepest descent step on ions:
 trial-energy change:   -0.000174  1 .order   -0.000179   -0.000199   -0.000158
  (g-gl).g = 0.199E-03      g.g   = 0.199E-03  gl.gl    = 0.000E+00
 g(Force)  = 0.199E-03   g(Stress)= 0.000E+00 ortho     = 0.000E+00
 gamma     =   0.00000
 trial     =   1.00000
 opt step  =   4.00000  (harmonic =   4.90725) maximal distance =0.00149479
 next E    =-11395.714882   (d E  =  -0.00049)

 reached required accuracy - stopping structural energy minimisation

 total charge

# of ion       s       p       d       tot
    1        1.786   4.719   0.019   6.524
    2        1.786   4.719   0.019   6.525
    3        1.786   4.719   0.019   6.524
    4        1.786   4.719   0.019   6.525
    5        1.786   4.719   0.019   6.524
    6        1.786   4.719   0.019   6.524
    7        1.786   4.719   0.019   6.524
    8        1.786   4.719   0.019   6.525
    9        1.786   4.719   0.019   6.524
   10        1.786   4.719   0.019   6.525
   11        1.786   4.719   0.019   6.524
   12        1.786   4.719   0.019   6.524
   13        1.786   4.719   0.019   6.524
   14        1.786   4.719   0.019   6.524
   15        1.786   4.719   0.019   6.523
   16        1.786   4.719   0.019   6.524
   17        1.785   4.719   0.018   6.523
   18        1.786   4.719   0.019   6.524
   19        1.786   4.719   0.019   6.524
   20        1.786   4.719   0.019   6.524
   21        1.786   4.719   0.019   6.524
   22        1.786   4.719   0.019   6.524
   23        1.786   4.719   0.019   6.524
   24        1.786   4.719   0.019   6.524
   25        1.786   4.719   0.019   6.524
   26        1.786   4.719   0.019   6.524
   27        1.786   4.719   0.019   6.525
   28        1.786   4.719   0.019   6.524
   29        1.786   4.719   0.019   6.524
   30        1.786   4.719   0.020   6.525
   31        1.786   4.719   0.019   6.524
   32        1.786   4.719   0.020   6.525
   33        1.786   4.719   0.019   6.524
   34        1.786   4.719   0.019   6.524
   35        1.786   4.719   0.019   6.524
   36        1.786   4.719   0.019   6.524
   37        1.786   4.719   0.019   6.524
   38        1.786   4.719   0.019   6.524
   39        1.786   4.719   0.019   6.524
   40        1.786   4.719   0.020   6.526
   41        1.786   4.719   0.019   6.525
   42        1.786   4.719   0.019   6.524
   43        1.786   4.719   0.019   6.524
   44        1.786   4.719   0.019   6.524
   45        1.786   4.719   0.019   6.523
   46        1.786   4.719   0.019   6.524
   47        1.786   4.719   0.019   6.524
   48        1.786   4.719   0.019   6.524
   49        1.786   4.719   0.019   6.524
   50        1.786   4.719   0.019   6.524
   51        1.786   4.719   0.019   6.524
   52        1.786   4.719   0.020   6.525
   53        1.786   4.719   0.019   6.524
   54        1.786   4.719   0.019   6.525
   55        1.786   4.719   0.019   6.525
   56        1.786   4.719   0.019   6.524
   57        1.555   0.417   9.833  11.805
   58        1.554   0.417   9.833  11.804
   59        1.555   0.417   9.833  11.805
   60        1.555   0.417   9.833  11.805
[...]
  305        1.614   3.285   0.006   4.905
  306        1.615   3.275   0.007   4.897
  307        1.614   3.285   0.006   4.905
  308        1.614   3.285   0.006   4.905
  309        1.614   3.283   0.006   4.903
  310        1.614   3.284   0.006   4.904
  311        1.615   3.284   0.006   4.905
  312        1.614   3.285   0.006   4.905
  313        1.614   3.285   0.006   4.905
  314        1.615   3.275   0.007   4.897
  315        1.614   3.285   0.006   4.905
  316        1.614   3.284   0.006   4.904
  317        1.615   3.284   0.006   4.905
  318        1.614   3.285   0.006   4.904
  319        1.615   3.285   0.006   4.906
tot        521.906 954.709 631.6922108.307