 vasp.5.4.4.18Apr17-6-g9f103f2a35 (build Jun 22 2020 09:27:21) complex

 INCAR:
 POTCAR:    PAW_PBE Cs_sv 08Apr2002
 POTCAR:    PAW_PBE Pb_d 06Sep2000
 POTCAR:    PAW_PBE Br 06Sep2000
 POTCAR:    PAW_PBE Cs_sv 08Apr2002
   VRHFIN =Cs: 5s5p6s

   TITEL  = PAW_PBE Cs_sv 08Apr2002
   POMASS =  132.900; ZVAL   =    9.000    mass and valenz
   ENMAX  =  220.318; ENMIN  =  165.238 eV

 POTCAR:    PAW_PBE Pb_d 06Sep2000
   VRHFIN =Pb:

   TITEL  = PAW_PBE Pb_d 06Sep2000
   POMASS =  207.200; ZVAL   =   14.000    mass and valenz
   ENMAX  =  237.835; ENMIN  =  178.376 eV

 POTCAR:    PAW_PBE Br 06Sep2000
   VRHFIN =Br: s2p5

   TITEL  = PAW_PBE Br 06Sep2000
   POMASS =   79.904; ZVAL   =    7.000    mass and valenz
   ENMAX  =  216.285; ENMIN  =  162.214 eV

 Optimization of the real space projectors (new method)

 maximal supplied QI-value         = 15.12
 optimisation between [QCUT,QGAM] = [  8.77, 17.69] = [ 21.53, 87.61] Ry
 Optimized for a Real-space Cutoff    1.85 Angstroem

   l    n(q)    QCUT    max X(q) W(low)/X(q) W(high)/X(q)  e(spline)
   0     10     8.768    25.322    0.81E-04    0.51E-04    0.48E-06
   0     10     8.768    99.187    0.78E-04    0.50E-04    0.47E-06
   1      9     8.768    11.761    0.21E-03    0.20E-03    0.37E-06
   1      9     8.768     8.275    0.24E-03    0.22E-03    0.41E-06
   2      9     8.768     3.829    0.23E-04    0.15E-03    0.18E-06
 Optimization of the real space projectors (new method)

[...]

   l    n(q)    QCUT    max X(q) W(low)/X(q) W(high)/X(q)  e(spline)
   2      7     8.768     3.846    0.48E-04    0.11E-03    0.11E-06
   2      7     8.768     8.593    0.20E-03    0.22E-04    0.24E-06
   0      8     8.768    20.082    0.68E-04    0.88E-04    0.41E-07
   0      8     8.768     8.597    0.89E-04    0.13E-03    0.59E-07
   1      8     8.768    33.223    0.15E-03    0.53E-04    0.87E-07
   1      8     8.768    15.899    0.14E-03    0.44E-04    0.78E-07
 Optimization of the real space projectors (new method)

 maximal supplied QI-value         = 17.95
 optimisation between [QCUT,QGAM] = [  8.80, 17.59] = [ 21.67, 86.68] Ry
 Optimized for a Real-space Cutoff    1.59 Angstroem

   l    n(q)    QCUT    max X(q) W(low)/X(q) W(high)/X(q)  e(spline)
   0      8     8.797   175.082    0.82E-04    0.14E-03    0.89E-07
   0      8     8.797   174.004    0.79E-04    0.14E-03    0.86E-07
   1      8     8.797    54.315    0.16E-03    0.14E-04    0.30E-06
   1      8     8.797    42.441    0.16E-03    0.14E-04    0.30E-06
   2      7     8.797     3.596    0.92E-04    0.15E-03    0.85E-07
  PAW_PBE Cs_sv 08Apr2002               :
  PAW_PBE Pb_d 06Sep2000                :
  PAW_PBE Br 06Sep2000                  :

 POSCAR: Cs2 Pb2 Br6
  positions in direct lattice
  velocities in cartesian coordinates

 METAGGA = SCAN     LMAXTAU =  6    LMIXTAU =  F

 VTST: version 3.2, (02/03/18)

 CHAIN: initializing optimizer

 OPT: Using VASP Conjugate-Gradient optimizer
 CHAIN: Read ICHAIN            0

 POSCAR: Cs2 Pb2 Br6
  positions in direct lattice
  velocities in cartesian coordinates

 ion  position               nearest neighbor table
   1  0.750  0.750  0.750-
   2  0.250  0.250  0.250-
   3  0.000  0.000  0.000-   5 2.98   6 2.98   7 2.98   8 2.98   9 2.98  10 2.98
   4  0.500  0.500  0.500-   5 2.98   6 2.98   7 2.98   8 2.98   9 2.98  10 2.98
   5  0.250  0.687  0.250-   3 2.98   4 2.98
   6  0.750  0.313  0.750-   3 2.98   4 2.98
   7  0.250  0.813  0.687-   3 2.98   4 2.98
   8  0.750  0.187  0.313-   3 2.98   4 2.98
   9  0.250  0.250  0.813-   3 2.98   4 2.98
  10  0.750  0.750  0.187-   3 2.98   4 2.98

  LATTYP: Found a trigonal (rhomboedric) cell.
 ALAT       =     8.1739095215
 COS(alpha) =     0.4672782432

  Lattice vectors:

 A1 = (  -5.7783035327,   0.1876524277,  -5.7783035327)
 A2 = (   0.1876524277,  -5.7783035327,  -5.7783035327)
 A3 = (  -5.7783035327,  -5.7783035327,   0.1876524277)

Analysis of symmetry for initial positions (statically):
 Subroutine PRICEL returns:
 Original cell was already a primitive cell.

 Routine SETGRP: Setting up the symmetry group for a
 trigonal (rhombohedral) supercell.

 Subroutine GETGRP returns: Found 12 space group operations
 (whereof  6 operations were pure point group operations)
 out of a pool of 12 trial point group operations.

The static configuration has the point symmetry S_6 .
 The point group associated with its full space group is D_3d.

Analysis of symmetry for dynamics (positions and initial velocities):
 Subroutine PRICEL returns:
 Original cell was already a primitive cell.

 Routine SETGRP: Setting up the symmetry group for a
 trigonal (rhombohedral) supercell.

 Subroutine GETGRP returns: Found 12 space group operations
 (whereof  6 operations were pure point group operations)
 out of a pool of 12 trial point group operations.

The dynamic configuration has the point symmetry S_6 .
 The point group associated with its full space group is D_3d.

 Subroutine INISYM returns: Found 12 space group operations
 (whereof  6 operations are pure point group operations),
 and found     1 'primitive' translations

 KPOINTS: 1x1x1

Automatic generation of k-mesh.
Space group operators:
 irot       det(A)        alpha          n_x          n_y          n_z        tau_x        tau_y        tau_z
    1     1.000000     0.000001     1.000000     0.000000     0.000000     0.000000     0.000000     0.000000
    2    -1.000000     0.000001     1.000000     0.000000     0.000000     0.000000     0.000000     0.000000
    3     1.000000   120.000000     0.577350     0.577350     0.577350     0.000000     0.000000     0.000000
    4    -1.000000   120.000000     0.577350     0.577350     0.577350     0.000000     0.000000     0.000000
    5     1.000000   120.000000    -0.577350    -0.577350    -0.577350     0.000000     0.000000     0.000000
    6    -1.000000   120.000000    -0.577350    -0.577350    -0.577350     0.000000     0.000000     0.000000
    7     1.000000   180.000000     0.707107     0.000000    -0.707107    -1.500000     0.500000     0.500000
    8    -1.000000   180.000000     0.707107     0.000000    -0.707107    -1.500000     0.500000     0.500000
    9     1.000000   179.999999    -0.707107     0.707107    -0.000000    -1.500000     0.500000     0.500000
   10    -1.000000   179.999999    -0.707107     0.707107    -0.000000    -1.500000     0.500000     0.500000
   11     1.000000   179.999999     0.000000     0.707107    -0.707107    -1.500000     0.500000     0.500000
   12    -1.000000   179.999999     0.000000     0.707107    -0.707107    -1.500000     0.500000     0.500000

 Subroutine IBZKPT returns following result:

 Found      6 irreducible k-points:

 Following reciprocal coordinates:
            Coordinates               Weight
  0.000000  0.000000  0.000000      1.000000
  0.333333  0.000000  0.000000      2.000000
  0.000000  0.333333  0.000000      6.000000
  0.333333  0.333333  0.000000      6.000000
 -0.333333  0.333333  0.000000      6.000000
  0.000000 -0.333333  0.333333      6.000000

 Following cartesian coordinates:
            Coordinates               Weight
  0.000000  0.000000 -0.000000      1.000000
  0.029320  0.029320  0.029320      2.000000
  0.027475 -0.028397 -0.028397      6.000000
  0.056795  0.000922  0.000922      6.000000
 -0.001844 -0.057717 -0.057717      6.000000
 -0.055873  0.055873 -0.000000      6.000000

 SYSTEM =  CsPbBr3 cubic bulk
 POSCAR =  Cs2 Pb2 Br6

 Startparameter for this run:
   NWRITE =      2    write-flag & timer
   PREC   = accura    normal or accurate (medium, high low for compatibility)
   ISTART =      0    job   : 0-new  1-cont  2-samecut
   ICHARG =      2    charge: 1-file 2-atom 10-const
   ISPIN  =      1    spin polarized calculation?
   LNONCOLLINEAR =      F non collinear calculations
   LSORBIT =      F    spin-orbit coupling
   INIWAV =      1    electr: 0-lowe 1-rand  2-diag
   LASPH  =      T    aspherical Exc in radial PAW
   METAGGA=      F    non-selfconsistent MetaGGA calc.

 Electronic Relaxation 1
   ENCUT  =  300.0 eV  22.05 Ry    4.70 a.u.  11.54 11.92 11.92*2*pi/ulx,y,z
   ENINI  =  300.0     initial cutoff
   ENAUG  =  503.9 eV  augmentation charge cutoff
   NELM   =    200;   NELMIN=  2; NELMDL=  0     # of ELM steps
   EDIFF  = 0.1E-05   stopping-criterion for ELM
   LREAL  =      T    real-space projection
   NLSPLINE    = F    spline interpolate recip. space projectors
   LCOMPAT=      F    compatible to vasp.4.4
   GGA_COMPAT  = T    GGA compatible to vasp.4.4-vasp.4.6
   LMAXPAW     = -100 max onsite density
   LMAXMIX     =    2 max onsite mixed and CHGCAR
   VOSKOWN=      0    Vosko Wilk Nusair interpolation
   ROPT   =   -0.00025  -0.00025  -0.00025
 Ionic relaxation
   EDIFFG = -.1E-01   stopping-criterion for IOM
   NSW    =      0    number of steps for IOM
   NBLOCK =      1;   KBLOCK =      1    inner block; outer block
   IBRION =     -1    ionic relax: 0-MD 1-quasi-New 2-CG
   NFREE  =      1    steps in history (QN), initial steepest desc. (CG)
   ISIF   =      3    stress and relaxation
   IWAVPR =     10    prediction:  0-non 1-charg 2-wave 3-comb
   ISYM   =      2    0-nonsym 1-usesym 2-fastsym
   LCORR  =      T    Harris-Foulkes like correction to forces

   POTIM  = 0.5000    time-step for ionic-motion
   TEIN   =    0.0    initial temperature
   TEBEG  =    0.0;   TEEND  =   0.0 temperature during run
   SMASS  =  -3.00    Nose mass-parameter (am)
   estimated Nose-frequenzy (Omega)   =  0.10E-29 period in steps =****** mass=  -0.153E-26a.u.
   SCALEE = 1.0000    scale energy and forces
   NPACO  =    256;   APACO  = 16.0  distance and # of slots for P.C.
   PSTRESS=    0.0 pullay stress

  Mass of Ions in am
   POMASS = 132.90207.20 79.90
  Ionic Valenz
   ZVAL   =   9.00 14.00  7.00
  Atomic Wigner-Seitz radii
  virtual crystal weights
   VCA    =   1.00  1.00  1.00
   NELECT =      88.0000    total number of electrons
   NUPDOWN=      -1.0000    fix difference up-down

 DOS related values:
   EMIN   =  10.00;   EMAX   =-10.00  energy-range for DOS
   EFERMI =   0.00
   ISMEAR =     0;   SIGMA  =   0.01  broadening in eV -4-tet -1-fermi 0-gaus

 Electronic relaxation 2 (details)
   IALGO  =     38    algorithm
   LDIAG  =      T    sub-space diagonalisation (order eigenvalues)
   LSUBROT=      F    optimize rotation matrix (better conditioning)
   TURBO    =      0    0=normal 1=particle mesh
   IRESTART =      0    0=no restart 2=restart with 2 vectors
   NREBOOT  =      0    no. of reboots
   NMIN     =      0    reboot dimension
   EREF     =   0.00    reference energy to select bands
   IMIX   =      4    mixing-type and parameters
     AMIX     =   0.40;   BMIX     =  1.00
     AMIX_MAG =   1.60;   BMIX_MAG =  1.00
     AMIN     =   0.10
     WC   =   100.;   INIMIX=   1;  MIXPRE=   1;  MAXMIX= -45

 Intra band minimization:
   WEIMIN = 0.0000     energy-eigenvalue tresh-hold
   EBREAK =  0.45E-08  absolut break condition
   DEPER  =   0.30     relativ break condition

   TIME   =   0.40     timestep for ELM

  volume/ion in A,a.u.               =      40.47       273.07
  Fermi-wavevector in a.u.,A,eV,Ry     =   0.984484  1.860406 13.186897  0.969210
[...]
     5.965955960  0.000000000 -5.965955960     0.082425542 -0.085192188 -0.085192188
    -0.000000000  5.965955960 -5.965955960    -0.085192188  0.082425542 -0.085192188

  length of vectors
     8.173909522  8.437135832  8.437135832     0.152349170  0.145977354  0.145977354

 k-points in units of 2pi/SCALE and weight: 1x1x1
   0.00000000  0.00000000 -0.00000000       0.037
   0.02931961  0.02931961  0.02931961       0.074
   0.02747518 -0.02839740 -0.02839740       0.222
   0.05679479  0.00092222  0.00092222       0.222
  -0.00184443 -0.05771701 -0.05771701       0.222
  -0.05587258  0.05587258 -0.00000000       0.222

 k-points in reciprocal lattice and weights: 1x1x1
   0.00000000  0.00000000  0.00000000       0.037
   0.33333333  0.00000000  0.00000000       0.074
   0.00000000  0.33333333  0.00000000       0.222
   0.33333333  0.33333333  0.00000000       0.222
  -0.33333333  0.33333333  0.00000000       0.222
   0.00000000 -0.33333333  0.33333333       0.222

 position of ions in fractional coordinates (direct lattice)
   0.75000000  0.75000000  0.75000000
   0.25000000  0.25000000  0.25000000
   0.00000000  0.00000000  0.00000000
   0.50000000  0.50000000  0.50000000
   0.25000000  0.68713317  0.25000000
   0.75000000  0.31286683  0.75000000
   0.25000000  0.81286683  0.68713317
   0.75000000  0.18713317  0.31286683
   0.25000000  0.25000000  0.81286683
   0.75000000  0.75000000  0.18713317

 position of ions in cartesian coordinates  (Angst):
   8.80819462  8.80819462 -9.08967326
   2.93606487  2.93606487 -3.02989109
   0.00000000  0.00000000 -0.00000000
   5.87212975  5.87212975 -6.05978217
   5.54398213  2.93606487 -5.63780835
   6.20027736  8.80819462 -6.48175600
   6.29410358  5.54398213 -8.99584705
   5.45015592  6.20027736 -3.12371730
   2.93606487  6.29410358 -6.38792979
   8.80819462  5.45015592 -5.73163456

 k-point  1 :   0.0000 0.0000 0.0000  plane waves:    4801
 k-point  2 :   0.3333 0.0000 0.0000  plane waves:    4734
 k-point  3 :   0.0000 0.3333 0.0000  plane waves:    4779
 k-point  4 :   0.3333 0.3333 0.0000  plane waves:    4777
 k-point  5 :  -0.3333 0.3333 0.0000  plane waves:    4769
 k-point  6 :   0.0000-0.3333 0.3333  plane waves:    4794

 maximum and minimum number of plane-waves per node :       614      575

 maximum number of plane-waves:      4801
 maximum index in each direction:
   IXMAX=   11   IYMAX=   12   IZMAX=   11
   IXMIN=  -11   IYMIN=  -12   IZMIN=  -12

 real space projection operators:
  max/ min on nodes  :        689.59        660.12

 parallel 3D FFT for wavefunctions:
    minimum data exchange during FFTs selected (reduces bandwidth)
 parallel 3D FFT for charge:
    minimum data exchange during FFTs selected (reduces bandwidth)

 Broyden mixing: mesh for mixing (old mesh)
   NGX = 23   NGY = 23   NGZ = 23
  (NGX  = 96   NGY  = 96   NGZ  = 96)
  gives a total of  12167 points

 initial charge density was supplied:
 charge density of overlapping atoms calculated
 number of electron      88.0000000 magnetization
 keeping initial charge density in first step

 Maximum index for non-local projection operator          878
 Maximum index for augmentation-charges         2515 (set IRDMAX)

 First call to EWALD:  gamma=   0.240
 Maximum number of real-space cells 3x 3x 3
 Maximum number of reciprocal cells 3x 3x 3

--------------------------------------- Iteration      1(   1)  ---------------------------------------

 eigenvalue-minimisations  :   696
 total energy-change (2. order) : 0.3299810E+03  (-0.2820216E+04)
 number of electron      88.0000000 magnetization
 augmentation part       88.0000000 magnetization

 Free energy of the ion-electron system (eV)
  alpha Z        PSCENC =       222.91365407
  Ewald energy   TEWEN  =     -4592.34199623
  -Hartree energ DENC   =     -1844.17015134
  -exchange      EXHF   =         0.00000000
  -V(xc)+E(xc)   XCENC  =       231.00236428
  PAW double counting   =      5408.49043633    -5676.98046350
  entropy T*S    EENTRO =        -0.00000000
  eigenvalues    EBANDS =       -64.07291649
  atomic energy  EATOM  =      6645.14004964
  Solvation  Ediel_sol  =         0.00000000
  free energy    TOTEN  =       329.98097675 eV

  energy without entropy =      329.98097675  energy(sigma->0) =      329.98097675

[...]

 eigenvalue-minimisations  :   856
 total energy-change (2. order) :-0.6290428E+03  (-0.6131599E+03)
 number of electron      88.0000000 magnetization
 augmentation part       88.0000000 magnetization

[...]

 Broyden mixing:
  rms(total) = 0.50634E+00    rms(broyden)= 0.50617E+00
  rms(prec ) = 0.95224E+00
  weight for this iteration     100.00

[...]

 eigenvalues of (default mixing * dielectric matrix)
  average eigenvalue GAMMA=   1.1916
  1.1916

[...]

 eigenvalue-minimisations  :   832
 total energy-change (2. order) : 0.1640471E-04  (-0.3217037E-05)
 number of electron      88.0000000 magnetization
 augmentation part       -1.1637623 magnetization

[...]

 Broyden mixing:
  rms(total) = 0.16635E-03    rms(broyden)= 0.16124E-03
  rms(prec ) = 0.18773E-03
  weight for this iteration     100.00

[...]

 Broyden mixing:
  rms(total) = 0.55962E-04    rms(broyden)= 0.38238E-04
  rms(prec ) = 0.46421E-04
  weight for this iteration     100.00
  WARNING: grid for Broyden might be to small

 eigenvalues of (default mixing * dielectric matrix)
  average eigenvalue GAMMA=   1.5936
  2.9595  2.6790  2.0471  2.0471  1.1595  1.1595  0.9235  0.9235  1.0187  1.0187

[...]

--------------------------------------- Iteration      1(  16)  ---------------------------------------

 eigenvalue-minimisations  :   456
 total energy-change (2. order) :-0.4740327E-06  (-0.7533934E-08)
 number of electron      88.0000000 magnetization
 augmentation part       -1.1636958 magnetization

 Free energy of the ion-electron system (eV)
  alpha Z        PSCENC =       222.91365407
  Ewald energy   TEWEN  =     -4592.34199623
  -Hartree energ DENC   =     -1851.89464583
  -exchange      EXHF   =         0.00000000
  -V(xc)+E(xc)   XCENC  =       240.69002764
  PAW double counting   =      5783.94634153    -6052.11532851
  entropy T*S    EENTRO =        -0.00000000
  eigenvalues    EBANDS =      -753.74036953
  atomic energy  EATOM  =      6645.14004964
  Solvation  Ediel_sol  =         0.00000000
  free energy    TOTEN  =      -357.40226722 eV

  energy without entropy =     -357.40226722  energy(sigma->0) =     -357.40226722

 average (electrostatic) potential at core
  the test charge radii are     1.1312  1.1541  1.0178
  (the norm of the test charge is              1.0000)
       1 -55.4105       2 -55.4105       3-101.5896       4-101.5896       5 -68.9837
       6 -68.9837       7 -68.9837       8 -68.9837       9 -68.9837      10 -68.9837

 E-fermi :   0.6168     XC(G=0):  -8.0425     alpha+bet : -6.9943

 k-point     1 :       0.0000    0.0000    0.0000
  band No.  band energies     occupation
      1     -20.9262      2.00000
      2     -20.9223      2.00000
      3     -16.4236      2.00000
      4     -16.4235      2.00000
      5     -16.3272      2.00000
      6     -16.3271      2.00000
      7     -16.2639      2.00000
      8     -16.2627      2.00000
      9     -16.2471      2.00000
     10     -16.2469      2.00000
     11     -16.2456      2.00000
     12     -16.2455      2.00000
     13     -14.3613      2.00000
     14     -14.0285      2.00000
     15     -14.0285      2.00000
     16     -13.9676      2.00000
     17     -13.7209      2.00000
     18     -13.7209      2.00000
     19      -8.1982      2.00000
     20      -7.3500      2.00000
     21      -7.3282      2.00000
     22      -7.3281      2.00000
     23      -7.3134      2.00000
     24      -7.2951      2.00000
     25      -7.2950      2.00000
     26      -6.4587      2.00000
     27      -3.3827      2.00000
     28      -3.3827      2.00000
     29      -3.1802      2.00000
     30      -1.9300      2.00000
     31      -1.9299      2.00000
     32      -1.8939      2.00000
     33      -1.5486      2.00000
     34      -1.4381      2.00000
     35      -1.4380      2.00000
     36      -1.2872      2.00000
     37      -1.2871      2.00000
     38      -1.1735      2.00000
     39      -1.1734      2.00000
     40      -1.0350      2.00000
     41      -0.8995      2.00000
     42      -0.8995      2.00000
     43      -0.8488      2.00000
     44       0.5743      2.00000
     45       2.7151      0.00000
     46       2.8321      0.00000
     47       2.8323      0.00000
     48       4.7123      0.00000
     49       5.8356      0.00000
     50       5.8357      0.00000
     51       6.2023      0.00000
     52       6.4698      0.00000
     53       6.5489      0.00000
     54       6.5490      0.00000
     55       6.6377      0.00000
     56       6.6890      0.00000

[...]

 k-point     6 :       0.0000   -0.3333    0.3333
  band No.  band energies     occupation
      1     -20.9241      2.00000
      2     -20.9240      2.00000
      3     -16.4017      2.00000
      4     -16.4006      2.00000
      5     -16.3540      2.00000
      6     -16.3527      2.00000
      7     -16.2632      2.00000
      8     -16.2632      2.00000
      9     -16.2468      2.00000
     10     -16.2465      2.00000
     11     -16.2462      2.00000
     12     -16.2458      2.00000
     13     -14.1750      2.00000
     14     -14.1358      2.00000
     15     -14.0158      2.00000
     16     -13.9270      2.00000
     17     -13.8306      2.00000
     18     -13.7803      2.00000
     19      -7.4637      2.00000
     20      -7.4550      2.00000
     21      -7.3149      2.00000
     22      -7.3071      2.00000
     23      -7.2950      2.00000
     24      -7.2905      2.00000
     25      -7.2628      2.00000
     26      -7.2618      2.00000
     27      -3.1674      2.00000
     28      -2.8548      2.00000
     29      -2.7679      2.00000
     30      -2.2218      2.00000
     31      -2.1170      2.00000
     32      -2.0040      2.00000
     33      -1.6891      2.00000
     34      -1.6317      2.00000
     35      -1.4821      2.00000
     36      -1.3968      2.00000
     37      -1.3900      2.00000
     38      -1.2808      2.00000
     39      -1.2651      2.00000
     40      -1.1359      2.00000
     41      -1.0955      2.00000
     42      -0.9683      2.00000
     43      -0.6777      2.00000
     44      -0.5260      2.00000
     45       3.3584      0.00000
     46       3.9547      0.00000
     47       4.1896      0.00000
     48       5.0992      0.00000
     49       5.4368      0.00000
     50       5.9393      0.00000
     51       6.2183      0.00000
     52       6.4585      0.00000
     53       6.6973      0.00000
     54       6.7685      0.00000
     55       6.8494      0.00000
     56       7.0644      0.00000

 soft charge-density along one line, spin component           1
         0         1         2         3         4         5         6         7         8         9
 total charge-density along one line

------------------------ aborting loop because EDIFF is reached ----------------------------------------

 total charge

# of ion       s       p       d       tot
    1        1.784   4.718   0.015   6.517
    2        1.784   4.718   0.015   6.517
    3        1.552   0.428   9.835  11.815
    4        1.552   0.428   9.835  11.815
    5        1.615   3.279   0.006   4.900
    6        1.615   3.279   0.006   4.900
    7        1.614   3.291   0.006   4.911
    8        1.614   3.291   0.006   4.911
    9        1.615   3.279   0.007   4.901
   10        1.615   3.279   0.007   4.901
tot         16.359  29.992  19.738  66.089

  FORCE on cell =-STRESS in cart. coord.  units (eV):
  Direction    XX          YY          ZZ          XY          YZ          ZX
  Alpha Z   222.91365   222.91365   222.91365
  Ewald   -1530.78336 -1530.78336 -1530.78336   -39.64618   -39.64618   -39.64618
  Hartree   617.29824   617.29824   617.29824   -23.69460   -23.69460   -23.69460
  E(xc)    -369.47243  -369.42392  -369.42357     0.00446    -0.05229    -0.01404
  Local    -718.91549  -718.91549  -718.91555    62.90457    62.90517    62.90517
  n-local   450.15044   450.36738   450.16040    -0.28750    -0.21676    -0.36551
  augment   203.11324   203.11325   203.11254    -0.18904    -0.18897    -0.18896
  Kinetic  1123.88343  1125.69141  1125.86640     1.95600    -0.12205     1.21157
  Fock        0.00000     0.00000     0.00000     0.00000     0.00000     0.00000
  Total      -0.44079    -0.44079    -0.44079     0.07983     0.07983     0.07983
  in kB      -1.74525    -1.74525    -1.74525     0.31607     0.31607     0.31607

 VOLUME and BASIS-vectors are now :
  energy-cutoff  :      300.00
  volume of cell :      404.65
      direct lattice vectors                 reciprocal lattice vectors
     5.778303533  5.778303533 -0.187652428     0.087958835  0.087958835  0.087958835
     5.965955960  0.000000000 -5.965955960     0.082425542 -0.085192188 -0.085192188
    -0.000000000  5.965955960 -5.965955960    -0.085192188  0.082425542 -0.085192188

  length of vectors
     8.173909522  8.437135832  8.437135832     0.152349170  0.145977354  0.145977354

 FORCES acting on ions
    electron-ion (+dipol)            ewald-force                    non-local-force                 convergence-correction
   0.132E-04 -.134E-04 0.343E-06   0.376E-13 0.000E+00 -.711E-14   -.163E-18 -.221E-19 -.542E-19   0.200E-07 -.200E-07 -.251E-12
   -.132E-04 0.134E-04 -.343E-06   -.335E-15 -.107E-13 0.622E-14   0.163E-18 0.270E-18 -.163E-18   -.200E-07 0.200E-07 0.220E-12
   0.501E-14 0.265E-13 -.453E-14   -.142E-13 0.320E-13 0.178E-13   0.000E+00 0.529E-22 0.000E+00   -.798E-13 -.207E-13 0.499E-13
   -.164E-11 -.134E-11 0.512E-11   0.142E-13 0.213E-13 0.178E-14   0.000E+00 -.529E-22 -.600E-22   -.352E-13 0.368E-13 0.116E-13
   0.186E+02 -.320E-05 -.186E+02   -.188E+02 -.249E-13 0.188E+02   0.144E+00 0.000E+00 -.144E+00   0.267E-04 0.761E-09 -.267E-04
   -.186E+02 0.320E-05 0.186E+02   0.188E+02 -.178E-13 -.188E+02   -.144E+00 -.542E-18 0.144E+00   -.267E-04 -.761E-09 0.267E-04
   -.186E+02 0.186E+02 0.196E-06   0.188E+02 -.188E+02 -.266E-14   -.144E+00 0.144E+00 -.173E-17   -.267E-04 0.267E-04 -.192E-14
   0.186E+02 -.186E+02 -.196E-06   -.188E+02 0.188E+02 -.302E-13   0.144E+00 -.144E+00 0.173E-17   0.267E-04 -.267E-04 -.516E-13
   0.299E-05 -.186E+02 0.186E+02   -.107E-13 0.188E+02 -.188E+02   0.239E-17 -.144E+00 0.144E+00   -.760E-09 -.267E-04 0.267E-04
   -.299E-05 0.186E+02 -.186E+02   -.195E-13 -.188E+02 0.188E+02   -.239E-17 0.144E+00 -.144E+00   0.760E-09 0.267E-04 -.267E-04
   -.307E-11 -.441E-11 0.631E-11   -.182E-14 -.355E-14 -.355E-14   -.555E-16 -.278E-16 -.278E-16   -.103E-12 0.481E-13 0.453E-13

 POSITION                                       TOTAL-FORCE (eV/Angst)
      8.80819      8.80819     -9.08967         0.000000      0.000000      0.000000
      2.93606      2.93606     -3.02989         0.000000      0.000000      0.000000
      0.00000      0.00000     -0.00000         0.000000      0.000000     -0.000000
      5.87213      5.87213     -6.05978         0.000000     -0.000000      0.000000
      5.54398      2.93606     -5.63781        -0.003037     -0.000000      0.003037
      6.20028      8.80819     -6.48176         0.003037      0.000000     -0.003037
      6.29410      5.54398     -8.99585         0.003037     -0.003037      0.000000
      5.45016      6.20028     -3.12372        -0.003037      0.003037      0.000000
      2.93606      6.29410     -6.38793        -0.000000      0.003037     -0.003037
      8.80819      5.45016     -5.73163         0.000000     -0.003037      0.003037
    total drift:                               -0.000000     -0.000000      0.000000

  FREE ENERGIE OF THE ION-ELECTRON SYSTEM (eV)
  free  energy   TOTEN  =      -357.40226722 eV

  energy  without entropy=     -357.40226722  energy(sigma->0) =     -357.40226722

 stress matrix after NEB project (eV)
     -0.44079      0.07983      0.07983
      0.07983     -0.44079      0.07983
      0.07983      0.07983     -0.44079
  FORCES: max atom, RMS     0.004294    0.003326
  FORCE total and by dimension    0.010519    0.003037
  Stress total and by dimension    0.788108    0.440787

 total charge

# of ion       s       p       d       tot
    1        1.784   4.718   0.015   6.517
    2        1.784   4.718   0.015   6.517
    3        1.552   0.428   9.835  11.815
    4        1.552   0.428   9.835  11.815
    5        1.615   3.279   0.006   4.900
    6        1.615   3.279   0.006   4.900
    7        1.614   3.291   0.006   4.911
    8        1.614   3.291   0.006   4.911
    9        1.615   3.279   0.007   4.901
   10        1.615   3.279   0.007   4.901
tot         16.359  29.992  19.738  66.089