 vasp.5.4.4.18Apr17-6-g9f103f2a35 (build Jun 22 2020 09:27:21) complex

 INCAR:
 POTCAR:    PAW_PBE Cs_sv 08Apr2002
 POTCAR:    PAW_PBE Pb_d 06Sep2000
 POTCAR:    PAW_PBE Br 06Sep2000
 POTCAR:    PAW_PBE Cs_sv 08Apr2002
   VRHFIN =Cs: 5s5p6s

   TITEL  = PAW_PBE Cs_sv 08Apr2002
   POMASS =  132.900; ZVAL   =    9.000    mass and valenz
   ENMAX  =  220.318; ENMIN  =  165.238 eV

   TITEL  = PAW_PBE Pb_d 06Sep2000
   POMASS =  207.200; ZVAL   =   14.000    mass and valenz
   ENMAX  =  237.835; ENMIN  =  178.376 eV

   TITEL  = PAW_PBE Br 06Sep2000
   POMASS =   79.904; ZVAL   =    7.000    mass and valenz
   ENMAX  =  216.285; ENMIN  =  162.214 eV

 Optimization of the real space projectors (new method)

 maximal supplied QI-value         = 15.12
 optimisation between [QCUT,QGAM] = [  8.77, 17.69] = [ 21.53, 87.61] Ry
 Optimized for a Real-space Cutoff    1.85 Angstroem

   l    n(q)    QCUT    max X(q) W(low)/X(q) W(high)/X(q)  e(spline)
   0     10     8.768    25.322    0.81E-04    0.51E-04    0.48E-06
   0     10     8.768    99.187    0.78E-04    0.50E-04    0.47E-06
   1      9     8.768    11.761    0.21E-03    0.20E-03    0.37E-06
   1      9     8.768     8.275    0.24E-03    0.22E-03    0.41E-06
   2      9     8.768     3.829    0.23E-04    0.15E-03    0.18E-06
 Optimization of the real space projectors (new method)

[...]

   l    n(q)    QCUT    max X(q) W(low)/X(q) W(high)/X(q)  e(spline)
   2      7     8.768     3.846    0.48E-04    0.11E-03    0.11E-06
   2      7     8.768     8.593    0.20E-03    0.22E-04    0.24E-06
   0      8     8.768    20.082    0.68E-04    0.88E-04    0.41E-07
   0      8     8.768     8.597    0.89E-04    0.13E-03    0.59E-07
   1      8     8.768    33.223    0.15E-03    0.53E-04    0.87E-07
   1      8     8.768    15.899    0.14E-03    0.44E-04    0.78E-07
 Optimization of the real space projectors (new method)

 maximal supplied QI-value         = 17.95
 optimisation between [QCUT,QGAM] = [  8.80, 17.59] = [ 21.67, 86.68] Ry
 Optimized for a Real-space Cutoff    1.59 Angstroem

   l    n(q)    QCUT    max X(q) W(low)/X(q) W(high)/X(q)  e(spline)
   0      8     8.797   175.082    0.82E-04    0.14E-03    0.89E-07
   0      8     8.797   174.004    0.79E-04    0.14E-03    0.86E-07
   1      8     8.797    54.315    0.16E-03    0.14E-04    0.30E-06
   1      8     8.797    42.441    0.16E-03    0.14E-04    0.30E-06
   2      7     8.797     3.596    0.92E-04    0.15E-03    0.85E-07
  PAW_PBE Cs_sv 08Apr2002               :
  PAW_PBE Pb_d 06Sep2000                :
  PAW_PBE Br 06Sep2000                  :

 POSCAR: Cs4 Pb8 Br20
  positions in direct lattice
  velocities in cartesian coordinates

 METAGGA = SCAN     LMAXTAU =  6    LMIXTAU =  F

 VTST: version 3.2, (02/03/18)

 CHAIN: initializing optimizer

 OPT: Using VASP Conjugate-Gradient optimizer
 CHAIN: Read ICHAIN            0

 POSCAR: Cs4 Pb8 Br20
  positions in direct lattice
  velocities in cartesian coordinates

 ion  position               nearest neighbor table
   1  0.500  0.500  0.250-
   2  0.000  0.000  0.250-
   3  0.000  0.000  0.750-
   4  0.500  0.500  0.750-
   5  0.831  0.669  0.000-  18 2.90  25 2.90  13 3.16  14 3.16  22 3.38  29 3.38  20 3.38  31 3.38
                             6 4.05
   6  0.169  0.331  0.000-  16 2.90  27 2.90  13 3.16  14 3.16  20 3.38  31 3.38  29 3.38  22 3.38
                             5 4.05
   7  0.831  0.331  0.500-  32 2.90  19 2.90  24 3.16  23 3.16  28 3.38  26 3.38  15 3.38  17 3.38
                            12 4.05
   8  0.669  0.169  0.000-  20 2.90  31 2.90  13 3.16  14 3.16  25 3.38  18 3.38  27 3.38  16 3.38
                            11 4.05
   9  0.331  0.169  0.500-  28 2.90  15 2.90  24 3.16  23 3.16  30 3.38  32 3.38  21 3.38  19 3.38
                            10 4.05
  10  0.669  0.831  0.500-  26 2.90  17 2.90  24 3.16  23 3.16  32 3.38  30 3.38  19 3.38  21 3.38
                             9 4.05
  11  0.331  0.831  0.000-  22 2.90  29 2.90  13 3.16  14 3.16  27 3.38  16 3.38  18 3.38  25 3.38
                             8 4.05
  12  0.169  0.669  0.500-  30 2.90  21 2.90  24 3.16  23 3.16  26 3.38  28 3.38  17 3.38  15 3.38
                             7 4.05
  13  0.500  0.500  0.000-   5 3.16   6 3.16   8 3.16  11 3.16
  14  0.000  0.000  0.000-   5 3.16   6 3.16   8 3.16  11 3.16
  15  0.154  0.346  0.372-   9 2.90   7 3.38  12 3.38
  16  0.346  0.154  0.128-   6 2.90  11 3.38   8 3.38
  17  0.846  0.654  0.372-  10 2.90   7 3.38  12 3.38
  18  0.654  0.846  0.128-   5 2.90   8 3.38  11 3.38
  19  0.654  0.154  0.372-   7 2.90  10 3.38   9 3.38
  20  0.846  0.346  0.128-   8 2.90   6 3.38   5 3.38
  21  0.346  0.846  0.372-  12 2.90  10 3.38   9 3.38
  22  0.154  0.654  0.128-  11 2.90   5 3.38   6 3.38
  23  0.000  0.000  0.500-   7 3.16   9 3.16  10 3.16  12 3.16
  24  0.500  0.500  0.500-   7 3.16   9 3.16  10 3.16  12 3.16
  25  0.654  0.846  0.872-   5 2.90   8 3.38  11 3.38
  26  0.846  0.654  0.628-  10 2.90   7 3.38  12 3.38
  27  0.346  0.154  0.872-   6 2.90  11 3.38   8 3.38
  28  0.154  0.346  0.628-   9 2.90   7 3.38  12 3.38
  29  0.154  0.654  0.872-  11 2.90   5 3.38   6 3.38
  30  0.346  0.846  0.628-  12 2.90  10 3.38   9 3.38
  31  0.846  0.346  0.872-   8 2.90   6 3.38   5 3.38
  32  0.654  0.154  0.628-   7 2.90  10 3.38   9 3.38

  LATTYP: Found a simple tetragonal cell.
 ALAT       =     8.4983159791
 C/A-ratio  =     1.8161874605

  Lattice vectors:

 A1 = (   8.4983159791,   0.0000000000,   0.0000000000)
 A2 = (  -0.0000000000,   8.4983159791,   0.0000000000)
 A3 = (   0.0000000000,   0.0000000000,  15.4345349165)

Analysis of symmetry for initial positions (statically):
 Subroutine PRICEL returns following result:

  LATTYP: Found a body centered tetragonal cell.
 ALAT       =     8.4983159791
 C/A-ratio  =     1.8161874605

[...]

   2 primitive cells build up your supercell.

 Routine SETGRP: Setting up the symmetry group for a
 simple tetragonal supercell.

 Subroutine GETGRP returns: Found 16 space group operations
 (whereof  8 operations were pure point group operations)
 out of a pool of 16 trial point group operations.

The static configuration has the point symmetry C_4h.
 The point group associated with its full space group is D_4h.

Analysis of symmetry for dynamics (positions and initial velocities):
 Subroutine PRICEL returns following result:

  LATTYP: Found a body centered tetragonal cell.
 ALAT       =     8.4983159791
 C/A-ratio  =     1.8161874605

  Lattice vectors:

 A1 = (   4.2491579896,  -4.2491579896,   7.7172674582)
 A2 = (  -4.2491579896,   4.2491579896,   7.7172674582)
 A3 = (  -4.2491579896,  -4.2491579896,  -7.7172674582)

   2 primitive cells build up your supercell.

 Routine SETGRP: Setting up the symmetry group for a
 simple tetragonal supercell.

 Subroutine GETGRP returns: Found 16 space group operations
 (whereof  8 operations were pure point group operations)
 out of a pool of 16 trial point group operations.

The dynamic configuration has the point symmetry C_4h.
 The point group associated with its full space group is D_4h.

 Subroutine INISYM returns: Found 16 space group operations
 (whereof  8 operations are pure point group operations),
 and found     2 'primitive' translations

 KPOINTS: 1x1x1

Automatic generation of k-mesh.
Space group operators:
 irot       det(A)        alpha          n_x          n_y          n_z        tau_x        tau_y        tau_z
    1     1.000000     0.000000     1.000000     0.000000     0.000000    -0.000000    -0.000000     0.000000
    2    -1.000000     0.000000     1.000000     0.000000     0.000000    -0.000000    -0.000000     0.000000
    3     1.000000    90.000000     0.000000     0.000000    -1.000000    -0.000000    -0.000000     0.000000
    4    -1.000000    90.000000     0.000000     0.000000    -1.000000    -0.000000    -0.000000     0.000000
    5     1.000000   180.000000     0.000000     0.000000     1.000000    -0.000000    -0.000000     0.000000
    6    -1.000000   180.000000     0.000000     0.000000     1.000000    -0.000000    -0.000000     0.000000
    7     1.000000    90.000000     0.000000     0.000000     1.000000    -0.000000    -0.000000     0.000000
    8    -1.000000    90.000000     0.000000     0.000000     1.000000    -0.000000    -0.000000     0.000000
    9     1.000000   180.000000     0.000000     1.000000     0.000000    -0.000000    -0.000000     0.500000
   10    -1.000000   180.000000     0.000000     1.000000     0.000000    -0.000000    -0.000000     0.500000
   11     1.000000   180.000000     0.707107     0.707107     0.000000    -0.000000    -0.000000     0.500000
   12    -1.000000   180.000000     0.707107     0.707107     0.000000    -0.000000    -0.000000     0.500000
   13     1.000000   180.000000     1.000000     0.000000     0.000000    -0.000000    -0.000000     0.500000
   14    -1.000000   180.000000     1.000000     0.000000     0.000000    -0.000000    -0.000000     0.500000
   15     1.000000   180.000000     0.707107    -0.707107     0.000000    -0.000000    -0.000000     0.500000
   16    -1.000000   180.000000     0.707107    -0.707107     0.000000    -0.000000    -0.000000     0.500000

 Subroutine IBZKPT returns following result:

 Found     20 irreducible k-points:

 Following reciprocal coordinates:
            Coordinates               Weight
  0.000000  0.000000  0.000000      1.000000
  0.166667  0.000000  0.000000      4.000000
  0.333333  0.000000  0.000000      4.000000
  0.500000  0.000000  0.000000      2.000000
  0.166667  0.166667  0.000000      4.000000
  0.333333  0.166667  0.000000      8.000000
  0.500000  0.166667  0.000000      4.000000
  0.333333  0.333333  0.000000      4.000000
  0.500000  0.333333  0.000000      4.000000
  0.500000  0.500000  0.000000      1.000000
  0.000000  0.000000  0.333333      2.000000
  0.166667  0.000000  0.333333      8.000000
  0.333333  0.000000  0.333333      8.000000
  0.500000  0.000000  0.333333      4.000000
  0.166667  0.166667  0.333333      8.000000
  0.333333  0.166667  0.333333     16.000000
  0.500000  0.166667  0.333333      8.000000
  0.333333  0.333333  0.333333      8.000000
  0.500000  0.333333  0.333333      8.000000
  0.500000  0.500000  0.333333      2.000000

 Following cartesian coordinates:
            Coordinates               Weight
  0.000000  0.000000  0.000000      1.000000
  0.019612  0.000000  0.000000      4.000000
  0.039223  0.000000  0.000000      4.000000
  0.058835  0.000000  0.000000      2.000000
  0.019612  0.019612  0.000000      4.000000
  0.039223  0.019612  0.000000      8.000000
  0.058835  0.019612  0.000000      4.000000
  0.039223  0.039223  0.000000      4.000000
  0.058835  0.039223  0.000000      4.000000
  0.058835  0.058835  0.000000      1.000000
  0.000000  0.000000  0.021597      2.000000
  0.019612  0.000000  0.021597      8.000000
  0.039223  0.000000  0.021597      8.000000
  0.058835  0.000000  0.021597      4.000000
  0.019612  0.019612  0.021597      8.000000
  0.039223  0.019612  0.021597     16.000000
  0.058835  0.019612  0.021597      8.000000
  0.039223  0.039223  0.021597      8.000000
[...]
     31     -15.5604      2.00000
     32     -15.5599      2.00000
     33     -15.5596      2.00000
     34     -15.5595      2.00000
     35     -15.5590      2.00000
     36     -15.5590      2.00000
     37     -15.5360      2.00000
     38     -15.5355      2.00000
     39     -15.5240      2.00000
     40     -15.5234      2.00000
     41     -15.5037      2.00000
     42     -15.5037      2.00000
     43     -15.5032      2.00000
     44     -15.5032      2.00000
     45     -13.7638      2.00000
     46     -13.7612      2.00000
     47     -13.4323      2.00000
     48     -13.4276      2.00000
     49     -13.1706      2.00000
     50     -13.1648      2.00000
     51     -13.1565      2.00000
     52     -13.1349      2.00000
     53     -13.1349      2.00000
     54     -13.1230      2.00000
     55     -13.1069      2.00000
     56     -13.1069      2.00000
     57     -13.0109      2.00000
     58     -12.9860      2.00000
     59     -12.9258      2.00000
     60     -12.9258      2.00000
[...]
    162       5.7680      0.00000
    163       5.8033      0.00000
    164       5.8033      0.00000
    165       6.1845      0.00000
    166       6.1845      0.00000
    167       6.4111      0.00000
    168       6.4111      0.00000
    169       7.1397      0.00000
    170       7.5565      0.00000
    171       7.7215      0.00000
    172       7.8657      0.00000
    173       8.0225      0.00000
    174       8.0229      0.00000
    175       8.1531      0.00000
    176       8.1667      0.00000

[...]

 k-point    20 :       0.5000    0.5000    0.3333
  band No.  band energies     occupation
      1     -19.5975      2.00000
      2     -19.5972      2.00000
      3     -19.5970      2.00000
      4     -19.5968      2.00000
      5     -15.6510      2.00000
      6     -15.6510      2.00000
      7     -15.6505      2.00000
      8     -15.6505      2.00000
      9     -15.6209      2.00000
     10     -15.6209      2.00000
     11     -15.6204      2.00000
     12     -15.6204      2.00000
     13     -15.6125      2.00000
     14     -15.6125      2.00000
     15     -15.6119      2.00000
     16     -15.6119      2.00000
     17     -15.6045      2.00000
     18     -15.6045      2.00000
     19     -15.6039      2.00000
     20     -15.6039      2.00000
     21     -15.5648      2.00000
     22     -15.5648      2.00000
     23     -15.5642      2.00000
     24     -15.5642      2.00000
     25     -15.5623      2.00000
     26     -15.5623      2.00000
     27     -15.5618      2.00000
     28     -15.5618      2.00000
     29     -15.5612      2.00000
     30     -15.5612      2.00000
     31     -15.5607      2.00000
     32     -15.5607      2.00000
     33     -15.5533      2.00000
     34     -15.5533      2.00000
     35     -15.5528      2.00000
     36     -15.5528      2.00000
     37     -15.5292      2.00000
     38     -15.5292      2.00000
     39     -15.5287      2.00000
     40     -15.5287      2.00000
     41     -15.5034      2.00000
     42     -15.5034      2.00000
     43     -15.5028      2.00000
     44     -15.5028      2.00000
     45     -13.5777      2.00000
     46     -13.5775      2.00000
     47     -13.5753      2.00000
     48     -13.5751      2.00000
     49     -13.2951      2.00000
     50     -13.2951      2.00000
     51     -13.2751      2.00000
     52     -13.2751      2.00000
     53     -13.0429      2.00000
     54     -13.0429      2.00000
     55     -13.0207      2.00000
     56     -13.0207      2.00000
     57     -12.9532      2.00000
     58     -12.9531      2.00000
     59     -12.9459      2.00000
     60     -12.9459      2.00000
[...]
    162       5.6802      0.00000
    163       5.7603      0.00000
    164       5.7603      0.00000
    165       6.1342      0.00000
    166       6.1342      0.00000
    167       6.1518      0.00000
    168       6.1518      0.00000
    169       7.6581      0.00000
    170       7.6582      0.00000
    171       7.9780      0.00000
    172       7.9780      0.00000
    173       8.0004      0.00000
    174       8.0005      0.00000
    175       8.1627      0.00000
    176       8.1697      0.00000

 soft charge-density along one line, spin component           1
         0         1         2         3         4         5         6         7         8         9
 total charge-density along one line

------------------------ aborting loop because EDIFF is reached ----------------------------------------

 total charge

# of ion       s       p       d       tot
    1        1.788   4.719   0.022   6.529
    2        1.788   4.719   0.022   6.529
    3        1.788   4.719   0.022   6.529
    4        1.788   4.719   0.022   6.529
    5        1.542   0.410   9.828  11.780
    6        1.542   0.410   9.828  11.780
    7        1.543   0.407   9.828  11.778
    8        1.543   0.407   9.828  11.778
    9        1.542   0.410   9.828  11.780
   10        1.542   0.410   9.828  11.780
   11        1.543   0.407   9.828  11.778
   12        1.543   0.407   9.828  11.778
   13        1.619   3.286   0.009   4.914
   14        1.619   3.286   0.009   4.914
   15        1.617   3.273   0.008   4.898
   16        1.617   3.273   0.008   4.898
   17        1.617   3.273   0.008   4.898
   18        1.617   3.273   0.008   4.898
   19        1.617   3.273   0.008   4.897
   20        1.617   3.273   0.008   4.897
   21        1.617   3.273   0.008   4.898
   22        1.617   3.273   0.008   4.897
   23        1.619   3.286   0.009   4.914
   24        1.619   3.286   0.009   4.914
   25        1.617   3.273   0.008   4.898
   26        1.617   3.273   0.008   4.898
   27        1.617   3.273   0.008   4.898
   28        1.617   3.273   0.008   4.898
   29        1.617   3.273   0.008   4.897
   30        1.617   3.273   0.008   4.897
   31        1.617   3.273   0.008   4.897
   32        1.617   3.273   0.008   4.897
tot         51.844  87.656  78.871 218.371

  FORCE on cell =-STRESS in cart. coord.  units (eV):
  Direction    XX          YY          ZZ          XY          YZ          ZX
  Alpha Z   785.52546   785.52546   785.52546
  Ewald   -3773.05942 -3773.05942 -8343.11034     0.00000     0.00000     0.00000
  Hartree  3483.58336  3483.58336  -337.73869     0.00000    -0.00000    -0.00000
  E(xc)   -1239.55600 -1239.47941 -1239.30362    -0.03737     0.00037     0.00046
  Local   -5310.23415 -5310.23415  3064.34255     0.00000    -0.00000    -0.00000
  n-local  1563.07079  1562.68917  1564.89969    -0.04738     0.00261     0.00395
  augment   880.77438   880.77439   879.77824    -0.00000    -0.00003    -0.00003
  Kinetic  3608.50405  3609.28811  3623.94889    -1.33589     0.01291     0.01894
  Fock        0.00000     0.00000     0.00000     0.00000     0.00000     0.00000
  Total      -1.15202    -1.15202    -1.65782     0.00000     0.00000     0.00000
  in kB      -1.65582    -1.65582    -2.38281     0.00000     0.00000     0.00000

 VOLUME and BASIS-vectors are now :
  energy-cutoff  :      300.00
  volume of cell :     1114.70
      direct lattice vectors                 reciprocal lattice vectors
     8.498315979  0.000000000  0.000000000     0.117670372  0.000000000 -0.000000000
    -0.000000000  8.498315979  0.000000000     0.000000000  0.117670372  0.000000000
     0.000000000  0.000000000 15.434534916     0.000000000 -0.000000000  0.064789772

  length of vectors
     8.498315979  8.498315979 15.434534916     0.117670372  0.117670372  0.064789772

 FORCES acting on ions
    electron-ion (+dipol)            ewald-force                    non-local-force                 convergence-correction
   -.859E-04 -.858E-04 0.851E-04   -.431E-03 -.431E-03 0.434E-03   0.000E+00 -.169E-20 0.235E-20   0.101E-04 0.101E-04 -.909E-04
   0.260E-04 0.260E-04 0.851E-04   0.133E-03 0.133E-03 0.434E-03   0.000E+00 0.000E+00 -.800E-21   -.927E-05 -.927E-05 -.909E-04
   0.260E-04 0.260E-04 -.122E-03   0.133E-03 0.133E-03 -.615E-03   0.000E+00 -.169E-20 -.261E-19   -.927E-05 -.927E-05 0.898E-04
   -.858E-04 -.859E-04 -.122E-03   -.431E-03 -.431E-03 -.615E-03   0.000E+00 0.000E+00 -.101E-20   0.101E-04 0.101E-04 0.898E-04
   -.223E+02 0.223E+02 -.197E-03   0.265E+02 -.265E+02 -.994E-03   -.419E+01 0.419E+01 0.158E-19   0.787E-04 -.375E-04 0.142E-03
   0.223E+02 -.223E+02 -.197E-03   -.265E+02 0.265E+02 -.994E-03   0.419E+01 -.419E+01 0.839E-20   -.958E-04 0.515E-04 0.142E-03
   -.223E+02 -.223E+02 -.632E-05   0.265E+02 0.265E+02 -.230E-04   -.419E+01 -.419E+01 0.291E-20   0.803E-04 0.519E-04 -.140E-03
   0.223E+02 0.223E+02 -.195E-03   -.265E+02 -.265E+02 -.994E-03   0.419E+01 0.419E+01 -.239E-20   -.369E-04 -.941E-04 0.142E-03
   -.223E+02 0.223E+02 -.496E-05   0.265E+02 -.265E+02 -.230E-04   -.419E+01 0.419E+01 -.106E-19   0.513E-04 -.956E-04 -.140E-03
   0.223E+02 -.223E+02 -.496E-05   -.265E+02 0.265E+02 -.230E-04   0.419E+01 -.419E+01 0.198E-20   -.373E-04 0.785E-04 -.140E-03
   -.223E+02 -.223E+02 -.198E-03   0.265E+02 0.265E+02 -.994E-03   -.419E+01 -.419E+01 0.185E-20   0.521E-04 0.804E-04 0.142E-03
   0.223E+02 0.223E+02 -.360E-05   -.265E+02 -.265E+02 -.230E-04   0.419E+01 0.419E+01 -.407E-20   -.939E-04 -.367E-04 -.140E-03
   -.905E-04 -.349E-04 -.942E-04   -.459E-03 -.176E-03 -.477E-03   0.000E+00 0.000E+00 0.103E-21   0.901E-05 0.806E-05 0.701E-04
   -.771E-05 0.480E-04 -.942E-04   -.396E-04 0.243E-03 -.477E-03   0.000E+00 0.000E+00 -.659E-22   -.733E-05 -.828E-05 0.701E-04
   0.150E+02 -.150E+02 0.192E+03   -.154E+02 0.154E+02 -.193E+03   0.374E+00 -.374E+00 0.780E+00   -.442E-05 -.157E-04 -.722E-04
   -.150E+02 0.150E+02 -.192E+03   0.154E+02 -.154E+02 0.193E+03   -.374E+00 0.374E+00 -.780E+00   -.157E-04 -.446E-05 -.332E-04
   -.150E+02 0.150E+02 0.192E+03   0.154E+02 -.154E+02 -.193E+03   -.374E+00 0.374E+00 0.780E+00   -.579E-05 0.245E-04 -.722E-04
   0.150E+02 -.150E+02 -.192E+03   -.154E+02 0.154E+02 0.193E+03   0.374E+00 -.374E+00 -.780E+00   0.244E-04 -.574E-05 -.331E-04
   0.150E+02 0.150E+02 0.192E+03   -.154E+02 -.154E+02 -.193E+03   0.374E+00 0.374E+00 0.780E+00   0.251E-04 -.411E-05 -.722E-04
   -.150E+02 -.150E+02 -.192E+03   0.154E+02 0.154E+02 0.193E+03   -.374E+00 -.374E+00 -.780E+00   -.544E-05 -.150E-04 -.332E-04
   -.150E+02 -.150E+02 0.192E+03   0.154E+02 0.154E+02 -.193E+03   -.374E+00 -.374E+00 0.780E+00   -.150E-04 -.548E-05 -.722E-04
   0.150E+02 0.150E+02 -.192E+03   -.154E+02 -.154E+02 0.193E+03   0.374E+00 0.374E+00 -.780E+00   -.416E-05 0.251E-04 -.331E-04
   0.480E-04 -.771E-05 0.548E-04   0.243E-03 -.396E-04 0.279E-03   0.000E+00 0.000E+00 0.828E-22   -.828E-05 -.733E-05 -.691E-04
   -.349E-04 -.905E-04 0.548E-04   -.176E-03 -.459E-03 0.279E-03   0.000E+00 0.000E+00 -.738E-22   0.806E-05 0.901E-05 -.691E-04
   0.150E+02 -.150E+02 0.192E+03   -.154E+02 0.154E+02 -.193E+03   0.374E+00 -.374E+00 0.780E+00   0.244E-04 -.575E-05 0.130E-03
   -.150E+02 0.150E+02 -.192E+03   0.154E+02 -.154E+02 0.193E+03   -.374E+00 0.374E+00 -.780E+00   -.580E-05 0.245E-04 -.250E-04
   -.150E+02 0.150E+02 0.192E+03   0.154E+02 -.154E+02 -.193E+03   -.374E+00 0.374E+00 0.780E+00   -.157E-04 -.445E-05 0.130E-03
   0.150E+02 -.150E+02 -.192E+03   -.154E+02 0.154E+02 0.193E+03   0.374E+00 -.374E+00 -.780E+00   -.441E-05 -.157E-04 -.250E-04
   0.150E+02 0.150E+02 0.192E+03   -.154E+02 -.154E+02 -.193E+03   0.374E+00 0.374E+00 0.780E+00   -.415E-05 0.251E-04 0.130E-03
   -.150E+02 -.150E+02 -.192E+03   0.154E+02 0.154E+02 0.193E+03   -.374E+00 -.374E+00 -.780E+00   -.151E-04 -.549E-05 -.250E-04
   -.150E+02 -.150E+02 0.192E+03   0.154E+02 0.154E+02 -.193E+03   -.374E+00 -.374E+00 0.780E+00   -.545E-05 -.150E-04 0.130E-03
   0.150E+02 0.150E+02 -.192E+03   -.154E+02 -.154E+02 0.193E+03   0.374E+00 0.374E+00 -.780E+00   0.251E-04 -.410E-05 -.250E-04
   0.222E-01 0.222E-01 0.385E-01   -.480E-13 -.639E-13 -.284E-13   -.205E-14 0.167E-14 0.111E-15   -.278E-06 -.278E-06 0.761E-05

 POSITION                                       TOTAL-FORCE (eV/Angst)
      4.24916      4.24916      3.85863         0.000000     -0.000000      0.000000
      0.00000      0.00000      3.85863         0.000000     -0.000000      0.000000
      0.00000      0.00000     11.57590         0.000000      0.000000      0.000000
      4.24916      4.24916     11.57590        -0.000000      0.000000      0.000000
      7.06490      5.68257      0.00000        -0.014561      0.014561      0.000000
      1.43341      2.81574      0.00000         0.014561     -0.014561      0.000000
      7.06490      2.81574      7.71727        -0.014561     -0.014561      0.000000
      5.68257      1.43341      0.00000         0.014561      0.014561      0.000000
      2.81574      1.43341      7.71727        -0.014561      0.014561      0.000000
      5.68257      7.06490      7.71727         0.014561     -0.014561      0.000000
      2.81574      7.06490      0.00000        -0.014561     -0.014561      0.000000
      1.43341      5.68257      7.71727         0.014561      0.014561      0.000000
      4.24916      4.24916      0.00000         0.000000     -0.000000      0.000000
      0.00000      0.00000      0.00000         0.000000     -0.000000      0.000000
      1.30871      2.94044      5.74598         0.000313     -0.000313      0.004946
      2.94044      1.30871      1.97127        -0.000313      0.000313     -0.004946
      7.18960      5.55788      5.74598        -0.000313      0.000313      0.004946
      5.55788      7.18960      1.97127         0.000313     -0.000313     -0.004946
      5.55788      1.30871      5.74598         0.000313      0.000313      0.004946
      7.18960      2.94044      1.97127        -0.000313     -0.000313     -0.004946
      2.94044      7.18960      5.74598        -0.000313     -0.000313      0.004946
      1.30871      5.55788      1.97127         0.000313      0.000313     -0.004946
      0.00000      0.00000      7.71727         0.000000     -0.000000      0.000000
      4.24916      4.24916      7.71727        -0.000000      0.000000      0.000000
      5.55788      7.18960     13.46326         0.000313     -0.000313      0.004946
      7.18960      5.55788      9.68854        -0.000313      0.000313     -0.004946
      2.94044      1.30871     13.46326        -0.000313      0.000313      0.004946
      1.30871      2.94044      9.68854         0.000313     -0.000313     -0.004946
      1.30871      5.55788     13.46326         0.000313      0.000313      0.004946
      2.94044      7.18960      9.68854        -0.000313     -0.000313     -0.004946
      7.18960      2.94044     13.46326        -0.000313     -0.000313      0.004946
      5.55788      1.30871      9.68854         0.000313      0.000313     -0.004946
    total drift:                                0.022172      0.022172      0.038555

  FREE ENERGIE OF THE ION-ELECTRON SYSTEM (eV)
  free  energy   TOTEN  =     -1184.75161533 eV

  energy  without entropy=    -1184.75161533  energy(sigma->0) =    -1184.75161533

 stress matrix after NEB project (eV)
     -1.15202      0.00000      0.00000
      0.00000     -1.15202      0.00000
      0.00000      0.00000     -1.65782
  FORCES: max atom, RMS     0.020593    0.010879
  FORCE total and by dimension    0.061538    0.014561
  Stress total and by dimension    2.324366    1.657820

 total charge

# of ion       s       p       d       tot
    1        1.788   4.719   0.022   6.529
    2        1.788   4.719   0.022   6.529
    3        1.788   4.719   0.022   6.529
    4        1.788   4.719   0.022   6.529
    5        1.542   0.410   9.828  11.780
    6        1.542   0.410   9.828  11.780
    7        1.543   0.407   9.828  11.778
    8        1.543   0.407   9.828  11.778
    9        1.542   0.410   9.828  11.780
   10        1.542   0.410   9.828  11.780
   11        1.543   0.407   9.828  11.778
   12        1.543   0.407   9.828  11.778
   13        1.619   3.286   0.009   4.914
   14        1.619   3.286   0.009   4.914
   15        1.617   3.273   0.008   4.898
   16        1.617   3.273   0.008   4.898
   17        1.617   3.273   0.008   4.898
   18        1.617   3.273   0.008   4.898
   19        1.617   3.273   0.008   4.897
   20        1.617   3.273   0.008   4.897
   21        1.617   3.273   0.008   4.898
   22        1.617   3.273   0.008   4.897
   23        1.619   3.286   0.009   4.914
   24        1.619   3.286   0.009   4.914
   25        1.617   3.273   0.008   4.898
   26        1.617   3.273   0.008   4.898
   27        1.617   3.273   0.008   4.898
   28        1.617   3.273   0.008   4.898
   29        1.617   3.273   0.008   4.897
   30        1.617   3.273   0.008   4.897
   31        1.617   3.273   0.008   4.897
   32        1.617   3.273   0.008   4.897
tot         51.844  87.656  78.871 218.371