 vasp.5.4.4.18Apr17-6-g9f103f2a35 (build Jun 22 2020 09:36:46) gamma-only

 INCAR:
 POTCAR:    PAW_PBE Cs_sv 08Apr2002
 POTCAR:    PAW_PBE Pb_d 06Sep2000
 POTCAR:    PAW_PBE Br 06Sep2000
 POTCAR:    PAW_PBE Cs_sv 08Apr2002
 POTCAR:    PAW_PBE Pb_d 06Sep2000
 POTCAR:    PAW_PBE Br 06Sep2000
 POTCAR:    PAW_PBE Cs_sv 08Apr2002
   VRHFIN =Cs: 5s5p6s

   TITEL  = PAW_PBE Cs_sv 08Apr2002
   POMASS =  132.900; ZVAL   =    9.000    mass and valenz
   ENMAX  =  220.318; ENMIN  =  165.238 eV

   TITEL  = PAW_PBE Pb_d 06Sep2000
   POMASS =  207.200; ZVAL   =   14.000    mass and valenz
   ENMAX  =  237.835; ENMIN  =  178.376 eV

   TITEL  = PAW_PBE Br 06Sep2000
   POMASS =   79.904; ZVAL   =    7.000    mass and valenz
   ENMAX  =  216.285; ENMIN  =  162.214 eV

   TITEL  = PAW_PBE Cs_sv 08Apr2002
   POMASS =  132.900; ZVAL   =    9.000    mass and valenz
   ENMAX  =  220.318; ENMIN  =  165.238 eV

   TITEL  = PAW_PBE Pb_d 06Sep2000
   POMASS =  207.200; ZVAL   =   14.000    mass and valenz
   ENMAX  =  237.835; ENMIN  =  178.376 eV

   TITEL  = PAW_PBE Br 06Sep2000
   POMASS =   79.904; ZVAL   =    7.000    mass and valenz
   ENMAX  =  216.285; ENMIN  =  162.214 eV

 Optimization of the real space projectors (new method)

 maximal supplied QI-value         = 15.12
 optimisation between [QCUT,QGAM] = [  8.77, 17.69] = [ 21.53, 87.61] Ry
 Optimized for a Real-space Cutoff    1.85 Angstroem

   l    n(q)    QCUT    max X(q) W(low)/X(q) W(high)/X(q)  e(spline)
   0     10     8.768    25.322    0.81E-04    0.51E-04    0.48E-06
   0     10     8.768    99.187    0.78E-04    0.50E-04    0.47E-06
   1      9     8.768    11.761    0.21E-03    0.20E-03    0.37E-06
   1      9     8.768     8.275    0.24E-03    0.22E-03    0.41E-06
   2      9     8.768     3.829    0.23E-04    0.15E-03    0.18E-06
 Optimization of the real space projectors (new method)

[...]

   l    n(q)    QCUT    max X(q) W(low)/X(q) W(high)/X(q)  e(spline)
   2      7     8.768     3.846    0.48E-04    0.11E-03    0.11E-06
   2      7     8.768     8.593    0.20E-03    0.22E-04    0.24E-06
   0      8     8.768    20.082    0.68E-04    0.88E-04    0.41E-07
   0      8     8.768     8.597    0.89E-04    0.13E-03    0.59E-07
   1      8     8.768    33.223    0.15E-03    0.53E-04    0.87E-07
   1      8     8.768    15.899    0.14E-03    0.44E-04    0.78E-07
 Optimization of the real space projectors (new method)

 maximal supplied QI-value         = 17.95
 optimisation between [QCUT,QGAM] = [  8.80, 17.59] = [ 21.67, 86.68] Ry
 Optimized for a Real-space Cutoff    1.59 Angstroem

   l    n(q)    QCUT    max X(q) W(low)/X(q) W(high)/X(q)  e(spline)
   0      8     8.797   175.082    0.82E-04    0.14E-03    0.89E-07
   0      8     8.797   174.004    0.79E-04    0.14E-03    0.86E-07
   1      8     8.797    54.315    0.16E-03    0.14E-04    0.30E-06
   1      8     8.797    42.441    0.16E-03    0.14E-04    0.30E-06
   2      7     8.797     3.596    0.92E-04    0.15E-03    0.85E-07
  PAW_PBE Cs_sv 08Apr2002               :
  PAW_PBE Pb_d 06Sep2000                :
  PAW_PBE Br 06Sep2000                  :
  PAW_PBE Cs_sv 08Apr2002               :
  PAW_PBE Pb_d 06Sep2000                :
  PAW_PBE Br 06Sep2000                  :

 POSCAR: Cs64 Pb64 Br191
  positions in direct lattice

 METAGGA = SCAN     LMAXTAU =  6    LMIXTAU =  F

 VTST: version 3.2, (02/03/18)

 CHAIN: initializing optimizer

 OPT: Using VASP Conjugate-Gradient optimizer
 CHAIN: Read ICHAIN            0

 POSCAR: Cs64 Pb64 Br191
  positions in direct lattice

 ion  position               nearest neighbor table
   1  0.886  0.875  0.354-
   2  0.136  0.875  0.604-
   3  0.887  0.375  0.357-
   4  0.136  0.375  0.604-
   5  0.886  0.875  0.853-
   6  0.136  0.875  0.104-
   7  0.386  0.875  0.353-
   8  0.636  0.875  0.604-
   9  0.886  0.375  0.853-
  10  0.136  0.375  0.103-
  11  0.386  0.875  0.853-
  12  0.636  0.876  0.104-
  13  0.386  0.375  0.853-
  14  0.635  0.373  0.099-
  15  0.104  0.125  0.386-
  16  0.354  0.125  0.636-
  17  0.104  0.626  0.388-
  18  0.104  0.125  0.886-
  19  0.354  0.125  0.136-
  20  0.603  0.124  0.387-
  21  0.854  0.125  0.636-
  22  0.104  0.625  0.886-
  23  0.354  0.627  0.136-
  24  0.854  0.625  0.636-
  25  0.604  0.125  0.886-
  26  0.854  0.125  0.136-
  27  0.604  0.625  0.886-
  28  0.853  0.628  0.136-
  29  0.896  0.875  0.114-
  30  0.146  0.875  0.364-
  31  0.898  0.374  0.112-
  32  0.147  0.374  0.364-
  33  0.897  0.875  0.614-
  34  0.146  0.875  0.864-
  35  0.396  0.875  0.114-
  36  0.646  0.875  0.364-
  37  0.896  0.375  0.614-
  38  0.146  0.375  0.864-
  39  0.396  0.372  0.111-
  40  0.396  0.875  0.614-
  41  0.646  0.875  0.864-
  42  0.646  0.375  0.863-
  43  0.114  0.125  0.146-
  44  0.364  0.125  0.397-
  45  0.114  0.626  0.143-
  46  0.114  0.125  0.647-
  47  0.364  0.125  0.896-
  48  0.614  0.125  0.147-
  49  0.864  0.125  0.396-
  50  0.114  0.625  0.647-
  51  0.364  0.625  0.897-
  52  0.614  0.632  0.133-
  53  0.864  0.625  0.396-
  54  0.614  0.125  0.646-
  55  0.864  0.125  0.896-
  56  0.863  0.625  0.897-
  57  0.750  0.751  0.250- 132 2.98 203 2.99 252 3.00 225 3.00 311 3.00 143 3.04
  58  0.000  0.750  0.500- 133 2.99 200 3.00 144 3.00 226 3.00 220 3.01 241 3.02
  59  0.750  0.250  0.250- 141 2.97 250 3.00 227 3.00 216 3.01 207 3.01 136 3.05
  60  0.000  0.250  0.500- 142 2.99 228 3.00 204 3.00 137 3.00 217 3.01 239 3.01
  61  0.750  0.750  0.750- 138 2.99 149 3.00 229 3.00 209 3.01 223 3.01 316 3.01
  62  0.000  0.750  1.000- 139 2.99 230 3.00 150 3.00 247 3.00 224 3.01 197 3.01
  63  0.250  0.750  0.250- 127 2.99 213 3.00 198 3.01 248 3.01 231 3.01 301 3.02
  64  0.500  0.751  0.500- 128 2.98 208 2.99 312 3.00 302 3.01 232 3.01 315 3.03
  65  0.750  0.250  0.750- 145 2.99 233 3.00 299 3.00 221 3.01 210 3.01 246 3.01
  66  0.000  0.250  1.000- 146 2.99 243 3.00 234 3.00 140 3.01 222 3.01 199 3.02
  67  0.250  0.750  0.750- 130 2.99 153 3.00 218 3.00 236 3.01 242 3.01 201 3.01
  68  0.499  0.751  0.999- 131 2.98 251 2.99 219 3.00 237 3.00 154 3.01 202 3.02
  69  0.250  0.250  0.750- 151 2.99 134 3.00 214 3.00 313 3.01 205 3.01 240 3.01
  70  0.500  0.249  1.000- 152 2.98 249 2.99 215 3.00 135 3.01 238 3.01 206 3.02
  71  0.000  0.750  0.250- 155 2.99 241 3.00 197 3.00 213 3.01 225 3.01 115 3.02
  72  0.250  0.750  0.500- 156 2.99 242 3.00 226 3.01 116 3.01 198 3.01 312 3.01
  73  1.000  0.250  0.250- 113 2.99 239 3.00 199 3.00 211 3.01 157 3.02 227 3.02
  74  0.000  0.750  0.750- 158 2.99 121 3.00 247 3.01 218 3.01 200 3.01 229 3.01
  75  0.250  0.750  1.000- 159 2.99 201 3.00 122 3.00 230 3.01 219 3.01 248 3.01
  76  0.500  0.750  0.250- 160 2.98 231 3.00 315 3.00 202 3.01 311 3.01 123 3.04
  77  0.750  0.750  0.500- 161 2.98 316 3.00 220 3.00 298 3.01 203 3.01 232 3.02
  78  0.000  0.250  0.750- 117 2.99 162 3.00 204 3.01 214 3.01 243 3.01 233 3.01
  79  0.250  0.250  1.000- 118 2.99 205 3.00 163 3.00 234 3.00 244 3.01 215 3.02
  80  0.751  0.248  0.501- 120 2.98 217 2.99 246 2.99 314 3.01 164 3.01 207 3.02
  81  0.500  0.750  0.750- 165 2.99 297 3.00 236 3.00 251 3.00 208 3.01 223 3.01
  82  0.750  0.751  0.999- 166 2.99 209 2.99 224 3.00 252 3.00 126 3.01 237 3.01
  83  0.500  0.250  0.750- 124 2.99 309 3.00 167 3.00 313 3.01 221 3.01 249 3.01
  84  0.750  0.250  1.000- 125 2.98 210 3.00 222 3.00 238 3.01 250 3.01 168 3.01
  85  0.000  1.000  0.250- 155 3.00 267 3.00 183 3.00 253 3.01 113 3.01 169 3.01
  86  0.250  1.000  0.500- 114 3.00 156 3.00 184 3.00 170 3.01 254 3.01 268 3.01
  87  0.003  0.500  0.250- 255 2.95 157 2.98 269 2.99 115 2.99 185 3.01 171 3.15
  88  0.000  0.000  0.750- 158 3.00 117 3.00 256 3.01 187 3.01 270 3.01 173 3.01
  89  0.250  1.000  1.000- 159 2.99 118 3.00 271 3.00 174 3.01 188 3.01 257 3.01
  90  0.500  0.000  0.250- 189 3.00 272 3.00 175 3.00 258 3.01 160 3.01 119 3.01
  91  0.750  1.000  0.500- 120 2.99 161 3.00 190 3.00 259 3.00 273 3.01 176 3.01
  92  0.000  0.500  0.750- 162 2.99 121 2.99 274 3.01 260 3.01 177 3.01 191 3.02
  93  0.250  0.500  1.000- 122 2.99 163 2.99 275 3.00 178 3.01 261 3.01 192 3.03
  94  0.750  0.500  0.500- 298 2.99 308 2.99 262 3.00 164 3.00 306 3.02 277 3.05
  95  0.500  0.000  0.750- 165 3.00 124 3.00 180 3.01 193 3.01 263 3.01 278 3.01
  96  0.750  0.000  1.000- 166 2.99 125 3.00 279 3.00 264 3.01 181 3.01 194 3.01
  97  0.500  0.500  0.750- 167 2.99 297 3.00 305 3.00 265 3.01 195 3.01 318 3.02
  98  0.750  0.500  1.000- 168 2.99 280 2.99 126 3.00 266 3.01 182 3.01 196 3.04
  99  0.750  0.000  0.250- 169 3.00 132 3.00 194 3.00 273 3.01 258 3.01 141 3.01
 100  0.000  1.000  0.500- 133 3.00 142 3.00 170 3.00 270 3.00 259 3.01 183 3.01
 101  0.755  0.497  0.247- 171 2.80 136 2.97 196 2.98 143 2.99 277 3.00
 102  0.000  0.500  0.500- 144 2.99 137 2.99 274 3.00 172 3.01 262 3.01 185 3.03
 103  0.750  0.000  0.750- 138 3.00 145 3.00 173 3.00 263 3.01 279 3.01 190 3.01
 104  0.000  0.000  1.000- 139 3.00 146 3.00 187 3.00 174 3.01 264 3.01 267 3.01
 105  0.250  0.000  0.250- 147 3.00 127 3.00 253 3.00 188 3.00 268 3.01 175 3.01
 106  0.500  1.000  0.500- 148 2.99 128 3.00 278 3.00 254 3.00 176 3.01 189 3.01
 107  0.750  0.500  0.750- 299 2.99 149 2.99 177 3.00 265 3.01 280 3.01 308 3.02
 108  1.000  0.500  0.999- 191 2.99 150 2.99 140 2.99 178 3.00 266 3.02 269 3.03
 109  0.250  0.000  0.750- 151 3.00 130 3.00 256 3.00 180 3.01 184 3.01 271 3.01
 110  0.500  0.000  1.000- 152 2.99 131 3.00 193 3.00 257 3.00 181 3.01 272 3.01
 111  0.250  0.500  0.750- 134 2.99 153 2.99 260 3.00 305 3.01 186 3.01 275 3.01
 112  0.500  0.499  1.000- 135 2.98 195 2.99 154 2.99 261 3.01 182 3.01 276 3.06
 113  0.984  0.125  0.231-  73 2.99  85 3.01
 114  0.234  0.125  0.480- 292 2.99  86 3.00
 115  0.985  0.624  0.230-  87 2.99  71 3.02
 116  0.234  0.625  0.482- 294 2.99  72 3.01
[...]
 266  0.876  0.518  0.027-  98 3.01 108 3.02
 267  0.025  0.982  0.126-  85 3.00 104 3.01
 268  0.275  0.982  0.376- 105 3.01  86 3.01
 269  0.026  0.482  0.127-  87 2.99 108 3.03
 270  0.025  0.982  0.626- 100 3.00  88 3.01
 271  0.275  0.982  0.876-  89 3.00 109 3.01
 272  0.525  0.982  0.126-  90 3.00 110 3.01
 273  0.775  0.982  0.376-  99 3.01  91 3.01
 274  0.025  0.482  0.626- 102 3.00  92 3.01
 275  0.276  0.482  0.876-  93 3.00 111 3.01
 276  0.528  0.482  0.128- 293 3.00 112 3.06
 277  0.771  0.482  0.374- 101 3.00  94 3.05
 278  0.525  0.982  0.626- 106 3.00  95 3.01
 279  0.775  0.982  0.876-  96 3.00 103 3.01
 280  0.776  0.482  0.876-  98 2.99 107 3.01
 281  0.387  0.373  0.357-
 282  0.636  0.375  0.604-
 283  0.603  0.630  0.389-
 284  0.354  0.625  0.636-
 285  0.396  0.375  0.614-
 286  0.650  0.367  0.371-
 287  0.614  0.625  0.648-
 288  0.364  0.626  0.399-
 289  0.250  0.250  0.250- 147 2.99 244 3.00 310 3.01 211 3.01 235 3.02 129 3.02
 290  0.500  0.249  0.501- 148 2.98 314 2.99 212 3.00 309 3.00 300 3.01 245 3.01
 291  0.500  0.250  0.250- 119 2.98 206 3.00 245 3.00 235 3.01 216 3.01 303 3.06
 292  0.250  0.250  0.500- 114 2.99 240 3.00 304 3.00 212 3.00 228 3.01 310 3.01
 293  0.495  0.499  0.249- 179 2.80 303 2.98 123 2.98 307 2.98 276 3.00
 294  0.250  0.500  0.500- 304 2.99 116 2.99 186 3.00 172 3.00 317 3.02 319 3.02
[...]
   0.247E+02 -.516E+01 0.146E+02   -.247E+02 0.507E+01 -.146E+02   -.443E-01 0.773E-01 0.253E-01   -.769E-03 0.264E-03 -.713E-03
   0.273E+02 0.311E+01 0.156E+02   -.273E+02 -.310E+01 -.156E+02   -.710E-01 -.952E-02 0.533E-01   -.271E-03 -.113E-03 0.146E-05
   0.292E+02 0.183E+01 0.115E+02   -.291E+02 -.181E+01 -.116E+02   -.852E-01 -.108E-01 0.779E-01   -.162E-03 -.193E-03 -.110E-03
   0.295E+02 0.445E+01 0.643E+01   -.294E+02 -.442E+01 -.653E+01   -.758E-01 -.220E-01 0.917E-01   -.138E-03 -.314E-03 -.261E-03
   0.260E+02 0.115E+02 0.157E+02   -.259E+02 -.115E+02 -.158E+02   -.702E-01 -.443E-01 0.485E-01   -.192E-03 -.165E-03 -.155E-03
   0.272E+02 -.539E+01 0.203E+02   -.271E+02 0.537E+01 -.203E+02   -.855E-01 0.201E-01 0.825E-02   -.150E-03 0.147E-04 0.131E-03
   0.286E+02 -.260E+01 0.109E+02   -.285E+02 0.259E+01 -.110E+02   -.858E-01 0.163E-01 0.843E-01   -.367E-03 0.594E-04 -.154E-03
   0.308E+02 -.137E+02 -.874E+01   -.307E+02 0.136E+02 0.854E+01   -.143E+00 0.135E+00 0.186E+00   -.124E-03 0.168E-04 -.519E-03
   0.247E+02 0.265E+01 0.130E+02   -.247E+02 -.263E+01 -.131E+02   -.546E-01 -.120E-01 0.684E-01   -.404E-03 -.222E-03 -.142E-03
   0.293E+02 0.297E+01 0.108E+02   -.292E+02 -.294E+01 -.109E+02   -.971E-01 -.311E-01 0.894E-01   -.212E-03 -.164E-03 -.728E-05
   0.303E+02 -.427E+01 0.809E+01   -.302E+02 0.425E+01 -.820E+01   -.904E-01 0.190E-01 0.103E+00   0.373E-04 0.229E-03 0.120E-03
   -.258E+02 -.263E+01 0.109E+02   0.258E+02 0.262E+01 -.110E+02   0.636E-01 0.138E-01 0.747E-01   -.113E-03 0.314E-03 -.216E-03
   -.321E+02 -.380E+01 0.137E+02   0.320E+02 0.377E+01 -.137E+02   0.907E-01 0.236E-01 0.721E-01   -.964E-04 0.285E-03 -.206E-03
   -.233E+02 0.401E+01 0.641E+01   0.233E+02 -.392E+01 -.653E+01   0.353E-01 -.774E-01 0.125E+00   -.657E-03 -.563E-03 -.518E-03
   -.288E+02 -.141E+01 0.138E+02   0.287E+02 0.140E+01 -.138E+02   0.807E-01 0.705E-02 0.624E-01   0.270E-03 0.321E-03 -.168E-03
   -.273E+02 -.207E+01 0.932E+01   0.272E+02 0.205E+01 -.943E+01   0.747E-01 0.131E-01 0.902E-01   0.351E-03 0.124E-03 -.258E-03
   -.253E+02 -.712E+01 0.101E+02   0.252E+02 0.710E+01 -.101E+02   0.645E-01 0.184E-01 0.681E-01   0.546E-03 0.719E-04 -.120E-03
   -.297E+02 -.370E+01 0.162E+02   0.296E+02 0.368E+01 -.162E+02   0.770E-01 0.148E-01 0.546E-01   0.431E-03 0.302E-03 0.271E-03
   -.290E+02 0.211E+01 0.145E+02   0.289E+02 -.209E+01 -.145E+02   0.888E-01 -.156E-01 0.674E-01   0.364E-03 -.226E-03 -.322E-03
   -.253E+02 0.409E+01 0.945E+01   0.252E+02 -.406E+01 -.952E+01   0.616E-01 -.260E-01 0.738E-01   0.458E-03 0.287E-04 -.121E-03
   0.148E+02 0.495E+02 -.354E+02   -.148E+02 -.493E+02 0.351E+02   -.442E-01 -.275E+00 0.291E+00   0.701E-03 0.226E-03 -.569E-03
   -.251E+02 0.129E+02 0.339E+02   0.250E+02 -.128E+02 -.339E+02   0.111E+00 -.638E-01 -.164E-01   0.117E-02 -.531E-03 0.383E-03
   -.294E+02 -.141E+01 0.124E+02   0.293E+02 0.140E+01 -.125E+02   0.897E-01 0.929E-02 0.643E-01   0.275E-03 0.162E-03 0.171E-03
   -.256E+02 -.212E+01 0.115E+02   0.256E+02 0.210E+01 -.115E+02   0.596E-01 0.123E-01 0.722E-01   0.155E-03 0.147E-03 -.151E-03
   -.222E+02 0.408E+01 0.128E+02   0.222E+02 -.405E+01 -.129E+02   0.211E-01 -.255E-01 0.557E-01   0.597E-04 -.344E-03 -.578E-04
   0.175E+02 0.439E+02 0.343E+01   -.174E+02 -.446E+02 -.332E+01   -.653E-01 0.706E+00 -.111E+00   0.613E-03 -.109E-03 -.185E-04
   -.119E+01 0.713E+01 0.941E+01   0.126E+01 -.731E+01 -.954E+01   -.629E-01 0.178E+00 0.121E+00   0.311E-03 -.463E-03 -.837E-04
   0.119E+01 -.367E+02 0.559E+01   -.125E+01 0.376E+02 -.563E+01   0.504E-01 -.880E+00 0.439E-01   0.964E-03 0.267E-03 0.684E-03
   -.769E+00 -.628E+01 0.812E+01   0.733E+00 0.641E+01 -.837E+01   0.357E-01 -.121E+00 0.238E+00   0.167E-03 0.681E-03 -.170E-03
[...]
   -.483E+02 0.937E+01 0.530E+02   0.485E+02 -.953E+01 -.533E+02   -.212E+00 0.144E+00 0.251E+00   -.228E-03 0.906E-04 -.300E-04
   -.189E+02 -.207E+02 0.127E+02   0.186E+02 0.209E+02 -.129E+02   0.202E+00 -.210E+00 0.108E+00   -.219E-03 0.232E-03 0.149E-03
   0.175E+02 -.170E+02 0.318E+02   -.178E+02 0.172E+02 -.320E+02   0.245E+00 -.183E+00 0.198E+00   -.778E-04 -.427E-04 0.158E-03
   -.228E+02 -.233E+02 -.246E+02   0.230E+02 0.235E+02 0.248E+02   -.205E+00 -.188E+00 -.238E+00   -.146E-04 0.113E-03 0.182E-04
   -.240E+02 -.215E+02 -.256E+02   0.242E+02 0.217E+02 0.258E+02   -.181E+00 -.166E+00 -.228E+00   -.236E-03 0.102E-03 -.379E-04
   0.188E+02 0.533E+02 -.236E+02   -.190E+02 -.535E+02 0.238E+02   0.167E+00 0.220E+00 -.181E+00   -.111E-03 0.810E-04 -.102E-03
   0.158E+02 0.216E+02 -.241E+02   -.160E+02 -.218E+02 0.243E+02   0.219E+00 0.179E+00 -.222E+00   -.100E-03 -.286E-03 0.148E-04
   -.212E+02 -.201E+02 0.258E+02   0.214E+02 0.202E+02 -.260E+02   -.192E+00 -.176E+00 0.230E+00   0.416E-04 0.799E-04 -.159E-03
   -.218E+02 -.224E+02 0.264E+02   0.220E+02 0.225E+02 -.266E+02   -.152E+00 -.961E-01 0.151E+00   -.145E-03 0.655E-04 0.152E-03
   0.975E+01 0.323E+02 0.267E+02   -.998E+01 -.324E+02 -.269E+02   0.222E+00 0.164E+00 0.209E+00   -.110E-03 -.256E-03 0.201E-04
   0.185E+02 0.236E+02 0.297E+02   -.187E+02 -.237E+02 -.299E+02   0.219E+00 0.184E+00 0.222E+00   -.205E-04 -.152E-03 0.126E-03
   0.108E+02 -.154E+02 -.229E+02   -.110E+02 0.156E+02 0.231E+02   0.219E+00 -.178E+00 -.213E+00   -.491E-04 -.525E-04 -.595E-05
   -.264E+02 0.168E+02 -.252E+02   0.266E+02 -.170E+02 0.255E+02   -.160E+00 0.193E+00 -.278E+00   0.445E-04 0.610E-04 0.122E-04
   -.295E+02 0.166E+02 -.308E+02   0.297E+02 -.168E+02 0.311E+02   -.171E+00 0.185E+00 -.257E+00   -.369E-03 0.158E-03 -.110E-03
   -.178E+01 0.204E+01 0.925E+00   0.228E-11 -.149E-11 0.176E-11   0.191E+01 -.193E+01 -.928E+00   0.610E-02 0.494E-03 0.308E-02

 POSITION                                       TOTAL-FORCE (eV/Angst)
      8.96464     20.58993     20.03060        -0.001696     -0.000202      0.000905
     -7.88063     20.58905     11.95692        -0.002008     -0.000249      0.001355
      8.91194      8.81715     20.09398        -0.001861      0.000884      0.000085
     -7.87734      8.81927     11.95288        -0.002139     -0.000199      0.001501
      0.54893     20.59041     28.10242        -0.002191      0.000225      0.001413
      0.54185     20.58946      3.87434        -0.002490     -0.000106      0.001486
      0.54410     20.58947     11.94073        -0.002282     -0.000113      0.001145
      0.54066     20.59117     20.03578        -0.002230     -0.000084      0.002094
      0.55073      8.81898     28.10168        -0.002262      0.000438      0.001182
      0.55498      8.81319      3.86634        -0.002296     -0.000081      0.000941
     -7.87171     20.59137     20.01334        -0.002093     -0.000140      0.001453
      8.96788     20.60348     11.95324        -0.002435      0.000706      0.001382
     -7.87045      8.81796     20.01995        -0.002209     -0.000217      0.001624
      9.02376      8.76706     11.87478        -0.002439     -0.000193      0.002718
     -4.75685      2.93766      7.90992         0.002062      0.000401      0.000983
     -4.75793      2.93713     15.99060         0.002086      0.000191      0.000923
     -4.78762     14.72412      7.94158         0.000456      0.000345      0.001346
    -13.17359      2.93757     15.98510         0.001938      0.000075      0.001141
      3.66404      2.93896      7.90912         0.001980      0.000106      0.001550
      3.64621      2.91435     15.99539         0.001800     -0.000199      0.001372
      3.66236      2.93348     24.07830         0.002457     -0.000560      0.001262
    -13.17076     14.70818     15.99067         0.001913      0.000224      0.001915
      3.68652     14.74187      7.91827         0.002740     -0.002508      0.001519
      3.66931     14.70374     24.07540         0.003108     -0.000708      0.001085
     -4.74916      2.93768     24.06459         0.002287      0.000139      0.001181
     12.09062      2.93918     15.98726         0.002588      0.000364      0.001501
     -4.74656     14.70778     24.06067         0.001977     -0.000286      0.001089
     12.07938     14.76707     15.97970         0.000805     -0.000257      0.001380
     13.17418     20.58825     16.32486        -0.002532     -0.000298     -0.001490
     -3.66529     20.58895      8.24560        -0.002448     -0.000353     -0.001124
     13.24165      8.79985     16.31172        -0.002449      0.001771     -0.003039
     -3.66743      8.79988      8.25949        -0.001797     -0.000777     -0.000412
      4.75438     20.58934     24.40883        -0.002172     -0.000420     -0.001399
    -12.08329     20.58850     16.31997        -0.002345     -0.000135     -0.001287
      4.75207     20.59495      8.24042        -0.002954     -0.000415     -0.001269
      4.74999     20.59334     16.32461        -0.001952      0.000306     -0.002238
      4.74226      8.81913     24.38412        -0.002048     -0.000395     -0.001534
    -12.08782      8.82245     16.32284        -0.002467     -0.000373     -0.001419
      4.79930      8.75412      8.18659        -0.001822      0.000929     -0.002103
     -3.67394     20.59119     16.32174        -0.001696     -0.000113     -0.001324
     -3.66800     20.58656     24.40022        -0.002512     -0.000222     -0.001254
     -3.66241      8.82037     24.38751        -0.001556     -0.000112      0.000349
     -0.54553      2.93948      4.20622         0.001621      0.000423     -0.001139
     -0.54771      2.93446     12.28437         0.002078      0.000144     -0.001198
     -0.49869     14.72112      4.15424         0.000762      0.000216     -0.001070
     -8.96814      2.93859     12.28820         0.001742      0.000180     -0.001331
     -8.96544      2.93668     20.35166         0.001972     -0.000221     -0.001469
      7.87087      2.93648     12.29114         0.001586      0.000511     -0.001290
      7.88360      2.93247     20.36395         0.001555     -0.000264     -0.000141
     -8.96811     14.70773     12.28753         0.002222     -0.000466     -0.001152
     -8.96672     14.70658     20.37060         0.002358     -0.000294     -0.000640
      8.10626     14.87865     12.06310         0.007131      0.000442     -0.006162
      7.88054     14.71235     20.34939         0.002141      0.000092     -0.001416
     -0.54501      2.94069     20.36216         0.002000     -0.000254     -0.001200
     -0.54205      2.93713     28.43994         0.002356      0.000182     -0.001691
     -0.56129     14.71046     28.43932         0.001893     -0.000304     -0.001830
      8.41607     17.65977     16.16544         0.000639      0.000086      0.000192
     -8.42290     17.65402      8.08103         0.000543     -0.001017     -0.000066
      8.42181      5.87895     16.15062         0.000319      0.001637      0.000503
     -8.41955      5.87122      8.08712         0.000373      0.000627     -0.000201
[...]
     -5.90044     11.33979     17.74704        -0.001609      0.000634     -0.000773
      2.58297     11.40004     17.67777         0.000373      0.000094     -0.003546
      1.73151     12.25919     13.71344         0.002466      0.001761     -0.002652
      1.69804     12.18163     21.77062         0.000120     -0.001171     -0.001261
     -1.69775      6.30099     18.60303        -0.001433     -0.000195      0.001489
     -1.69619      6.30096     10.52086        -0.000842     -0.000467      0.001997
      5.93071     17.19827     14.54149        -0.000762      0.005547      0.002348
     -2.51998     17.22335     14.56834         0.001588      0.000910      0.001843
     -5.90384      6.30471     17.74882         0.000362     -0.000495     -0.002508
      2.46051      6.19257     17.80143        -0.002445     -0.000870     -0.001114
      1.70244     17.20934     13.70703         0.000950      0.001358     -0.001534
      1.69351     17.21897     21.78182         0.001384     -0.000190     -0.001854
     -2.51025     12.18171     14.56589         0.001639     -0.003400      0.001503
     -1.68121     11.34610     18.60049         0.000111      0.000324      0.001144
     -1.68066     11.33356     10.52611        -0.001429      0.001897      0.001384
    total drift:                                0.140453      0.108461      0.000528

  FREE ENERGIE OF THE ION-ELECTRON SYSTEM (eV)
  free  energy   TOTEN  =    -11418.48245485 eV

  energy  without entropy=   -11418.48245485  energy(sigma->0) =   -11418.48245485

 d Force = 0.3003877E-03[ 0.247E-03, 0.354E-03]  d Energy = 0.3131186E-03-0.127E-04
 d Force = 0.3908111E+00[ 0.389E+00, 0.393E+00]  d Ewald  = 0.3908126E+00-0.142E-05

 stress matrix after NEB project (eV)
    -15.31464      0.31202     -0.60336
      0.31199    -16.66699     -0.57607
     -0.60338     -0.57603    -19.77214
  FORCES: max atom, RMS     0.009435    0.002731
  FORCE total and by dimension    0.048772    0.007131
  Stress total and by dimension   30.080740   19.772144
 Conjugate gradient step on ions:
 trial-energy change:   -0.000313  1 .order   -0.000300   -0.000354   -0.000247
  (g-gl).g = 0.185E-03      g.g   = 0.197E-03  gl.gl    = 0.591E-03
 g(Force)  = 0.197E-03   g(Stress)= 0.000E+00 ortho     = 0.115E-04
 gamma     =   0.31350
 trial     =   1.76750
 opt step  =   3.46399  (harmonic =   5.82998) maximal distance =0.00234058
 next E    =-11418.482585   (d E  =  -0.00044)

 reached required accuracy - stopping structural energy minimisation

 total charge

# of ion       s       p       d       tot
    1        1.786   4.719   0.019   6.524
    2        1.786   4.719   0.019   6.523
    3        1.786   4.719   0.018   6.523
    4        1.786   4.719   0.019   6.523
    5        1.786   4.719   0.019   6.524
    6        1.786   4.719   0.019   6.523
    7        1.786   4.719   0.019   6.524
    8        1.786   4.719   0.019   6.523
    9        1.786   4.719   0.019   6.524
   10        1.786   4.719   0.019   6.524
   11        1.786   4.719   0.019   6.524
   12        1.786   4.719   0.019   6.523
   13        1.786   4.719   0.019   6.523
   14        1.787   4.719   0.020   6.525
   15        1.786   4.719   0.019   6.523
   16        1.786   4.719   0.019   6.523
   17        1.786   4.719   0.019   6.523
   18        1.786   4.719   0.019   6.524
   19        1.786   4.719   0.019   6.523
   20        1.786   4.719   0.019   6.524
   21        1.786   4.719   0.019   6.523
   22        1.786   4.719   0.019   6.523
   23        1.786   4.719   0.018   6.522
   24        1.786   4.719   0.019   6.523
   25        1.786   4.719   0.019   6.524
   26        1.786   4.719   0.019   6.523
   27        1.786   4.719   0.019   6.523
   28        1.786   4.719   0.019   6.523
   29        1.786   4.719   0.019   6.523
   30        1.786   4.719   0.019   6.523
   31        1.786   4.719   0.019   6.524
   32        1.786   4.719   0.019   6.524
   33        1.786   4.719   0.019   6.524
   34        1.786   4.719   0.019   6.523
   35        1.786   4.719   0.019   6.523
   36        1.786   4.719   0.019   6.524
   37        1.786   4.719   0.018   6.523
   38        1.786   4.719   0.019   6.523
   39        1.786   4.719   0.019   6.524
   40        1.786   4.719   0.019   6.524
   41        1.786   4.719   0.019   6.523
   42        1.786   4.719   0.019   6.523
   43        1.786   4.719   0.019   6.523
   44        1.786   4.719   0.019   6.523
   45        1.786   4.719   0.019   6.523
   46        1.786   4.719   0.019   6.524
   47        1.786   4.719   0.019   6.523
   48        1.786   4.719   0.019   6.524
   49        1.786   4.719   0.019   6.524
   50        1.786   4.719   0.019   6.524
   51        1.786   4.719   0.019   6.523
   52        1.786   4.719   0.019   6.524
   53        1.786   4.719   0.018   6.522
   54        1.786   4.719   0.019   6.523
   55        1.786   4.719   0.019   6.524
   56        1.786   4.719   0.018   6.523
   57        1.554   0.417   9.833  11.804
   58        1.554   0.416   9.833  11.804
   59        1.554   0.414   9.833  11.801
   60        1.555   0.416   9.833  11.804
[...]
  305        1.614   3.283   0.006   4.903
  306        1.614   3.283   0.006   4.903
  307        1.614   3.283   0.006   4.902
  308        1.614   3.282   0.006   4.902
  309        1.614   3.284   0.006   4.904
  310        1.614   3.285   0.006   4.905
  311        1.614   3.283   0.006   4.903
  312        1.614   3.284   0.006   4.904
  313        1.614   3.284   0.006   4.904
  314        1.614   3.288   0.006   4.909
  315        1.614   3.284   0.006   4.904
  316        1.614   3.284   0.006   4.903
  317        1.614   3.284   0.006   4.903
  318        1.614   3.283   0.006   4.903
  319        1.614   3.283   0.006   4.903
tot        522.019 955.940 631.6822109.641