 vasp.5.4.4.18Apr17-6-g9f103f2a35 (build Jun 22 2020 09:27:21) complex

 INCAR:
 POTCAR:    PAW_PBE Cs_sv 08Apr2002
 POTCAR:    PAW_PBE Pb_d 06Sep2000
 POTCAR:    PAW_PBE Br 06Sep2000
 POTCAR:    PAW_PBE Cs_sv 08Apr2002
   VRHFIN =Cs: 5s5p6s

   TITEL  = PAW_PBE Cs_sv 08Apr2002
   POMASS =  132.900; ZVAL   =    9.000    mass and valenz
   ENMAX  =  220.318; ENMIN  =  165.238 eV

   TITEL  = PAW_PBE Pb_d 06Sep2000
   POMASS =  207.200; ZVAL   =   14.000    mass and valenz
   ENMAX  =  237.835; ENMIN  =  178.376 eV

   TITEL  = PAW_PBE Br 06Sep2000
   POMASS =   79.904; ZVAL   =    7.000    mass and valenz
   ENMAX  =  216.285; ENMIN  =  162.214 eV

 Optimization of the real space projectors (new method)

 maximal supplied QI-value         = 15.12
 optimisation between [QCUT,QGAM] = [  8.77, 17.69] = [ 21.53, 87.61] Ry
 Optimized for a Real-space Cutoff    1.85 Angstroem

   l    n(q)    QCUT    max X(q) W(low)/X(q) W(high)/X(q)  e(spline)
   0     10     8.768    25.322    0.81E-04    0.51E-04    0.48E-06
   0     10     8.768    99.187    0.78E-04    0.50E-04    0.47E-06
   1      9     8.768    11.761    0.21E-03    0.20E-03    0.37E-06
   1      9     8.768     8.275    0.24E-03    0.22E-03    0.41E-06
   2      9     8.768     3.829    0.23E-04    0.15E-03    0.18E-06
 Optimization of the real space projectors (new method)

[...]

   l    n(q)    QCUT    max X(q) W(low)/X(q) W(high)/X(q)  e(spline)
   2      7     8.768     3.846    0.48E-04    0.11E-03    0.11E-06
   2      7     8.768     8.593    0.20E-03    0.22E-04    0.24E-06
   0      8     8.768    20.082    0.68E-04    0.88E-04    0.41E-07
   0      8     8.768     8.597    0.89E-04    0.13E-03    0.59E-07
   1      8     8.768    33.223    0.15E-03    0.53E-04    0.87E-07
   1      8     8.768    15.899    0.14E-03    0.44E-04    0.78E-07
 Optimization of the real space projectors (new method)

 maximal supplied QI-value         = 17.95
 optimisation between [QCUT,QGAM] = [  8.80, 17.59] = [ 21.67, 86.68] Ry
 Optimized for a Real-space Cutoff    1.59 Angstroem

   l    n(q)    QCUT    max X(q) W(low)/X(q) W(high)/X(q)  e(spline)
   0      8     8.797   175.082    0.82E-04    0.14E-03    0.89E-07
   0      8     8.797   174.004    0.79E-04    0.14E-03    0.86E-07
   1      8     8.797    54.315    0.16E-03    0.14E-04    0.30E-06
   1      8     8.797    42.441    0.16E-03    0.14E-04    0.30E-06
   2      7     8.797     3.596    0.92E-04    0.15E-03    0.85E-07
  PAW_PBE Cs_sv 08Apr2002               :
  PAW_PBE Pb_d 06Sep2000                :
  PAW_PBE Br 06Sep2000                  :

 POSCAR: Cs Pb Br
  positions in cartesian coordinates

 METAGGA = SCAN     LMAXTAU =  6    LMIXTAU =  F

 VTST: version 3.2, (02/03/18)

 CHAIN: initializing optimizer

 OPT: Using VASP Conjugate-Gradient optimizer
 CHAIN: Read ICHAIN            0

 POSCAR: Cs Pb Br
  positions in cartesian coordinates

 ion  position               nearest neighbor table
   1  0.272  0.250  0.208-
   2  0.811  0.272  0.726-
   3  0.812  0.677  0.235-
   4  0.348  0.686  0.725-
   5  0.323  0.140  0.698-
   6  0.782  0.263  0.220-
   7  0.778  0.726  0.787-
   8  0.284  0.686  0.232-
   9  0.078  0.974  0.005-  30 2.79  21 2.92  31 2.92  36 3.03  33 3.21
  10  0.564  0.948  0.455-  32 2.93  22 2.95  35 3.10  20 3.18  34 3.23  29 3.27
  11  0.582  0.965  0.970-  17 2.91  29 2.91  23 2.98  33 3.03  31 3.16
  12  0.041  0.944  0.481-  18 2.89  30 2.96  34 3.16  24 3.25  32 3.32
  13  0.554  0.475  0.969-  39 2.94  37 2.99  25 3.00  27 3.03  23 3.10  17 3.25
  14  0.068  0.460  0.471-  38 2.71  24 3.02  18 3.03  26 3.11  28 3.19  40 3.33
  15  0.047  0.494  0.956-  37 2.80  40 2.92  25 2.96  28 3.06  21 3.08  19 3.08
  16  0.556  0.474  0.483-  22 2.68  39 2.76  26 2.94  27 2.97  38 2.99  20 3.18
  17  0.540  0.737  0.054-  11 2.91  13 3.25
  18  0.051  0.709  0.409-  12 2.89  14 3.03
  19  0.079  0.250  0.867-  15 3.08
  20  0.503  0.211  0.442-  16 3.18  10 3.18
  21  0.009  0.739  0.040-   9 2.92  15 3.08
  22  0.560  0.701  0.499-  16 2.68  10 2.95
  23  0.531  0.213  0.953-  11 2.98  13 3.10
  24  0.989  0.216  0.479-  14 3.02  12 3.25
  25  0.300  0.511  0.971-  15 2.96  13 3.00
  26  0.807  0.498  0.497-  16 2.94  14 3.11
  27  0.555  0.473  0.228-  16 2.97  13 3.03
  28  0.048  0.587  0.711-  15 3.06  14 3.19
  29  0.516  0.934  0.729-  11 2.91  10 3.27
  30  0.089  0.005  0.242-   9 2.79  12 2.96
  31  0.840  0.045  0.962-   9 2.92  11 3.16
  32  0.321  0.895  0.477-  10 2.93  12 3.32
  33  0.347  0.975  0.072-  11 3.03   9 3.21
  34  0.805  0.963  0.603-  12 3.16  10 3.23
  35  0.723  0.947  0.248-  10 3.10
  36  0.159  0.911  0.770-   9 3.03
  37  0.810  0.458  0.963-  15 2.80  13 2.99
  38  0.301  0.449  0.477-  14 2.71  16 2.99
  39  0.546  0.458  0.718-  16 2.76  13 2.94
  40  0.030  0.414  0.191-  15 2.92  14 3.33

  LATTYP: Found a base centered orthorhombic cell.
 ALAT       =    16.1559620000
 B/A-ratio  =     1.0423418921
 C/A-ratio  =     0.7281403608

  Lattice vectors:

 A1 = (  -8.4200180000,   0.0000000000,  -8.0779810000)
 A2 = (   8.4200180000,   0.0000000000,  -8.0779810000)
 A3 = (   0.0000000000, -11.7638080000,   0.0000000000)

Analysis of symmetry for initial positions (statically):
 Subroutine PRICEL returns:
 Original cell was already a primitive cell.

 Routine SETGRP: Setting up the symmetry group for a
 base centered orthorhombic supercell.

 Subroutine GETGRP returns: Found  1 space group operations
 (whereof  1 operations were pure point group operations)
 out of a pool of  8 trial point group operations.

The static configuration has the point symmetry C_1 .

Analysis of symmetry for dynamics (positions and initial velocities):
 Subroutine PRICEL returns:
 Original cell was already a primitive cell.

[...]

The dynamic configuration has the point symmetry C_1 .

Analysis of constrained symmetry for selective dynamics:
 Subroutine PRICEL returns:
 Original cell was already a primitive cell.

 Routine SETGRP: Setting up the symmetry group for a
 base centered orthorhombic supercell.

 Subroutine GETGRP returns: Found  1 space group operations
 (whereof  1 operations were pure point group operations)
 out of a pool of  8 trial point group operations.

The constrained configuration has the point symmetry C_1 .

 Subroutine INISYM returns: Found  1 space group operations
 (whereof  1 operations are pure point group operations),
 and found     1 'primitive' translations

 KPOINTS: 1x1x1

Automatic generation of k-mesh.
Space group operators:
 irot       det(A)        alpha          n_x          n_y          n_z        tau_x        tau_y        tau_z
    1     1.000000     0.000000     1.000000     0.000000     0.000000     0.000000     0.000000     0.000000

 Subroutine IBZKPT returns following result:

 Found      8 irreducible k-points:

 Following reciprocal coordinates:
            Coordinates               Weight
  0.000000  0.000000  0.000000      1.000000
  0.500000  0.000000  0.000000      1.000000
  0.000000  0.500000  0.000000      1.000000
  0.500000  0.500000  0.000000      1.000000
  0.000000  0.000000  0.500000      1.000000
  0.500000  0.000000  0.500000      1.000000
  0.000000  0.500000  0.500000      1.000000
  0.500000  0.500000  0.500000      1.000000

 Following cartesian coordinates:
            Coordinates               Weight
  0.000000  0.000000  0.000000      1.000000
  0.029691  0.000000  0.030948      1.000000
  0.000000  0.042503  0.000000      1.000000
  0.029691  0.042503  0.030948      1.000000
 -0.029691  0.000000  0.030948      1.000000
  0.000000  0.000000  0.061897      1.000000
 -0.029691  0.042503  0.030948      1.000000
  0.000000  0.042503  0.061897      1.000000

 SYSTEM =  CsPbBr3 cubic bulk
 POSCAR =  Cs Pb Br

 Startparameter for this run:
   NWRITE =      2    write-flag & timer
   PREC   = accura    normal or accurate (medium, high low for compatibility)
   ISTART =      0    job   : 0-new  1-cont  2-samecut
   ICHARG =      2    charge: 1-file 2-atom 10-const
   ISPIN  =      1    spin polarized calculation?
   LNONCOLLINEAR =      F non collinear calculations
   LSORBIT =      F    spin-orbit coupling
   INIWAV =      1    electr: 0-lowe 1-rand  2-diag
   LASPH  =      T    aspherical Exc in radial PAW
   METAGGA=      F    non-selfconsistent MetaGGA calc.

 Electronic Relaxation 1
   ENCUT  =  300.0 eV  22.05 Ry    4.70 a.u.  16.48 16.61 16.48*2*pi/ulx,y,z
   ENINI  =  300.0     initial cutoff
   ENAUG  =  503.9 eV  augmentation charge cutoff
   NELM   =    200;   NELMIN=  2; NELMDL= -5     # of ELM steps
   EDIFF  = 0.1E-05   stopping-criterion for ELM
   LREAL  =      T    real-space projection
   NLSPLINE    = F    spline interpolate recip. space projectors
   LCOMPAT=      F    compatible to vasp.4.4
   GGA_COMPAT  = T    GGA compatible to vasp.4.4-vasp.4.6
   LMAXPAW     = -100 max onsite density
   LMAXMIX     =    2 max onsite mixed and CHGCAR
   VOSKOWN=      0    Vosko Wilk Nusair interpolation
   ROPT   =   -0.00025  -0.00025  -0.00025
 Ionic relaxation
   EDIFFG = -.1E-01   stopping-criterion for IOM
   NSW    =      0    number of steps for IOM
   NBLOCK =      1;   KBLOCK =      1    inner block; outer block
   IBRION =     -1    ionic relax: 0-MD 1-quasi-New 2-CG
   NFREE  =      1    steps in history (QN), initial steepest desc. (CG)
   ISIF   =      3    stress and relaxation
   IWAVPR =     10    prediction:  0-non 1-charg 2-wave 3-comb
   ISYM   =      2    0-nonsym 1-usesym 2-fastsym
   LCORR  =      T    Harris-Foulkes like correction to forces

   POTIM  = 0.5000    time-step for ionic-motion
   TEIN   =    0.0    initial temperature
   TEBEG  =    0.0;   TEEND  =   0.0 temperature during run
   SMASS  =  -3.00    Nose mass-parameter (am)
   estimated Nose-frequenzy (Omega)   =  0.10E-29 period in steps =****** mass=  -0.311E-26a.u.
   SCALEE = 1.0000    scale energy and forces
   NPACO  =    256;   APACO  = 16.0  distance and # of slots for P.C.
   PSTRESS=    0.0 pullay stress

  Mass of Ions in am
   POMASS = 132.90207.20 79.90
  Ionic Valenz
   ZVAL   =   9.00 14.00  7.00
  Atomic Wigner-Seitz radii
  virtual crystal weights
   VCA    =   1.00  1.00  1.00
   NELECT =     352.0000    total number of electrons
   NUPDOWN=      -1.0000    fix difference up-down

 DOS related values:
   EMIN   =  10.00;   EMAX   =-10.00  energy-range for DOS
   EFERMI =   0.00
   ISMEAR =     0;   SIGMA  =   0.01  broadening in eV -4-tet -1-fermi 0-gaus

 Electronic relaxation 2 (details)
   IALGO  =     38    algorithm
   LDIAG  =      T    sub-space diagonalisation (order eigenvalues)
   LSUBROT=      F    optimize rotation matrix (better conditioning)
   TURBO    =      0    0=normal 1=particle mesh
   IRESTART =      0    0=no restart 2=restart with 2 vectors
   NREBOOT  =      0    no. of reboots
   NMIN     =      0    reboot dimension
   EREF     =   0.00    reference energy to select bands
   IMIX   =      4    mixing-type and parameters
     AMIX     =   0.40;   BMIX     =  1.00
     AMIX_MAG =   1.60;   BMIX_MAG =  1.00
     AMIN     =   0.10
     WC   =   100.;   INIMIX=   1;  MIXPRE=   1;  MAXMIX= -45

 Intra band minimization:
[...]
     23     -16.5374      2.00000
     24     -16.4985      2.00000
     25     -16.4826      2.00000
     26     -16.4811      2.00000
     27     -16.4727      2.00000
     28     -16.4492      2.00000
     29     -16.4179      2.00000
     30     -16.4134      2.00000
     31     -16.4015      2.00000
     32     -16.3963      2.00000
     33     -16.3436      2.00000
     34     -16.3188      2.00000
     35     -16.2999      2.00000
     36     -16.2786      2.00000
     37     -16.2748      2.00000
     38     -16.2634      2.00000
     39     -16.2457      2.00000
     40     -16.2208      2.00000
     41     -16.2172      2.00000
     42     -16.2148      2.00000
     43     -16.2138      2.00000
     44     -16.2072      2.00000
     45     -16.1862      2.00000
     46     -16.1498      2.00000
     47     -16.1291      2.00000
     48     -16.1007      2.00000
     49     -14.8066      2.00000
     50     -14.6560      2.00000
     51     -14.5253      2.00000
     52     -14.4021      2.00000
     53     -14.3208      2.00000
     54     -14.2397      2.00000
     55     -14.1738      2.00000
     56     -14.1349      2.00000
     57     -14.0748      2.00000
     58     -14.0278      2.00000
     59     -14.0098      2.00000
     60     -13.8854      2.00000
[...]
    202       6.0124      0.00000
    203       6.0951      0.00000
    204       6.1211      0.00000
    205       6.1945      0.00000
    206       6.2221      0.00000
    207       6.2334      0.00000
    208       6.3279      0.00000
    209       6.3892      0.00000
    210       6.4308      0.00000
    211       6.4568      0.00000
    212       6.4777      0.00000
    213       6.5505      0.00000
    214       6.6911      0.00000
    215       6.7143      0.00000
    216       6.7737      0.00000

 soft charge-density along one line, spin component           1
         0         1         2         3         4         5         6         7         8         9
 total charge-density along one line

------------------------ aborting loop because EDIFF is reached ----------------------------------------

 total charge

# of ion       s       p       d       tot
    1        1.787   4.719   0.020   6.526
    2        1.788   4.719   0.023   6.529
    3        1.793   4.720   0.032   6.544
    4        1.790   4.720   0.028   6.538
    5        1.789   4.719   0.026   6.533
    6        1.786   4.719   0.020   6.525
    7        1.786   4.715   0.018   6.519
    8        1.786   4.718   0.019   6.523
    9        1.544   0.434   9.832  11.809
   10        1.548   0.390   9.824  11.763
   11        1.542   0.428   9.827  11.798
   12        1.542   0.379   9.821  11.742
   13        1.547   0.419   9.829  11.796
   14        1.548   0.431   9.831  11.810
   15        1.553   0.443   9.837  11.833
   16        1.546   0.497   9.847  11.890
   17        1.618   3.271   0.007   4.896
   18        1.617   3.295   0.008   4.919
   19        1.612   3.272   0.003   4.888
   20        1.612   3.274   0.004   4.890
   21        1.615   3.290   0.007   4.912
   22        1.620   3.302   0.013   4.934
   23        1.614   3.269   0.006   4.889
   24        1.614   3.270   0.005   4.889
   25        1.615   3.290   0.007   4.911
   26        1.615   3.287   0.007   4.909
   27        1.615   3.290   0.007   4.913
   28        1.615   3.268   0.005   4.888
   29        1.617   3.292   0.007   4.916
   30        1.619   3.285   0.010   4.914
   31        1.616   3.270   0.006   4.892
   32        1.615   3.278   0.006   4.900
   33        1.615   3.269   0.005   4.890
   34        1.614   3.261   0.004   4.880
   35        1.614   3.272   0.004   4.890
   36        1.613   3.282   0.004   4.899
   37        1.617   3.306   0.010   4.933
   38        1.620   3.294   0.011   4.925
   39        1.619   3.305   0.011   4.935
   40        1.615   3.299   0.007   4.921
tot         65.449 119.961  78.998 264.408

  FORCE on cell =-STRESS in cart. coord.  units (eV):
  Direction    XX          YY          ZZ          XY          YZ          ZX
  Alpha Z   901.86909   901.86909   901.86909
  Ewald   -5743.31353 -6397.24422 -6284.67395   -37.56850   -61.03896   158.13406
  Hartree  2736.74102  2231.40520  2405.63479   -23.03388   -27.21615    80.22715
  E(xc)   -1477.71763 -1477.91861 -1478.20774     0.02139    -0.13870     0.28402
  Local   -3530.72603 -2372.10382 -2658.80464    59.84228    89.43106  -239.01497
  n-local  1801.63887  1798.24588  1796.22980     0.35174     0.11726     1.91465
  augment   814.84143   813.27237   812.55699    -0.06314     0.43975     0.21996
  Kinetic  4498.45189  4504.23478  4509.15696     1.77308    -3.28940     1.18472
  Fock        0.00000     0.00000     0.00000     0.00000     0.00000     0.00000
  Total       1.78511     1.76066     3.76130     1.32297    -1.69513     2.94960
  in kB       1.78723     1.76276     3.76578     1.32454    -1.69714     2.95311

 VOLUME and BASIS-vectors are now :
  energy-cutoff  :      300.00
  volume of cell :     1600.27
      direct lattice vectors                 reciprocal lattice vectors
     8.420018000  0.000000000  8.077981000     0.059382296 -0.000000000  0.061896655
     0.000000000 11.763808000  0.000000000     0.000000000  0.085006488 -0.000000000
    -8.420018000  0.000000000  8.077981000    -0.059382296  0.000000000  0.061896655

  length of vectors
    11.668353789 11.763808000 11.668353789     0.085775596  0.085006488  0.085775596

 FORCES acting on ions
    electron-ion (+dipol)            ewald-force                    non-local-force                 convergence-correction
   -.262E+02 0.305E+02 -.270E+02   0.264E+02 -.309E+02 0.271E+02   0.220E+00 0.268E+00 0.161E+00   -.452E-03 0.258E-02 0.270E-02
   -.108E+02 0.670E+02 0.270E+02   0.112E+02 -.675E+02 -.265E+02   -.367E+00 0.116E+00 -.719E+00   0.513E-04 0.226E-02 -.272E-02
   0.172E+02 -.181E+02 0.101E+02   -.174E+02 0.186E+02 -.101E+02   -.146E+00 -.818E+00 -.279E+00   -.196E-02 -.224E-02 -.814E-04
   0.401E+02 -.645E+01 0.138E+02   -.406E+02 0.710E+01 -.144E+02   0.270E+00 -.515E+00 0.298E+00   0.190E-02 -.311E-02 -.132E-04
   0.191E+02 -.762E+02 0.229E+02   -.194E+02 0.757E+02 -.227E+02   0.177E+00 0.110E+01 -.348E+00   0.243E-02 0.256E-02 -.474E-03
   0.225E+02 0.644E+02 -.541E+01   -.225E+02 -.648E+02 0.559E+01   -.211E+00 -.314E-01 -.223E+00   -.232E-02 0.225E-02 0.108E-03
   -.311E+02 -.260E+02 0.134E+01   0.321E+02 0.264E+02 -.134E+01   -.795E+00 -.279E+00 -.372E-01   -.192E-03 -.262E-02 -.207E-02
   -.244E+02 -.162E+02 -.108E+02   0.246E+02 0.167E+02 0.108E+02   0.669E-01 -.373E+00 0.143E+00   0.757E-04 -.277E-02 0.203E-02
   -.550E+02 -.701E+02 0.253E+02   0.590E+02 0.735E+02 -.254E+02   -.315E+01 -.326E+01 -.656E+00   0.574E-03 0.122E-02 0.945E-03
   -.755E+02 -.108E+03 0.324E+02   0.768E+02 0.110E+03 -.317E+02   -.941E+00 -.155E+01 -.308E+00   -.315E-03 0.917E-03 0.393E-03
   -.645E+01 -.459E+02 -.416E+02   0.764E+01 0.467E+02 0.455E+02   -.163E+01 -.570E+00 -.366E+01   0.197E-03 -.639E-03 0.673E-03
   0.708E+02 -.737E+02 -.314E+02   -.727E+02 0.759E+02 0.346E+02   0.175E+01 -.195E+01 -.288E+01   -.201E-03 0.758E-03 0.982E-03
   0.213E+02 0.401E+02 0.153E+02   -.212E+02 -.388E+02 -.146E+02   -.783E+00 -.142E+01 -.581E+00   0.362E-03 0.380E-03 -.742E-03
   0.212E+02 0.811E+02 -.317E+02   -.237E+02 -.811E+02 0.283E+02   0.140E+01 0.683E-01 0.280E+01   0.129E-02 -.509E-03 0.112E-02
   -.743E+02 0.294E+02 -.112E+02   0.767E+02 -.278E+02 0.120E+02   -.138E+01 -.188E+01 -.724E+00   0.282E-03 0.387E-03 0.143E-03
   -.268E+02 0.109E+03 0.170E+02   0.285E+02 -.114E+03 -.197E+02   -.890E+00 0.455E+01 0.244E+01   -.153E-02 -.204E-02 -.802E-03
   0.442E+02 0.805E+01 -.154E+02   -.450E+02 -.837E+01 0.156E+02   0.123E+01 -.339E+00 -.314E+00   -.165E-03 -.148E-02 0.279E-03
   -.579E+01 -.858E+01 0.136E+02   0.603E+01 0.834E+01 -.137E+02   -.271E+00 0.298E+00 0.244E+00   -.138E-03 -.158E-02 0.271E-03
   -.644E+02 0.555E+02 0.488E+01   0.647E+02 -.559E+02 -.507E+01   -.315E+00 0.670E+00 0.538E+00   0.750E-03 0.141E-02 0.886E-04
   -.490E+01 0.315E+02 0.213E+02   0.477E+01 -.314E+02 -.217E+02   0.261E+00 -.629E+00 0.483E+00   -.391E-03 0.152E-02 0.743E-04
   0.224E+02 -.807E+01 0.531E+01   -.228E+02 0.779E+01 -.532E+01   0.676E+00 0.337E+00 -.315E-02   -.234E-03 -.150E-02 0.194E-04
   -.133E+02 -.534E+02 -.121E+02   0.130E+02 0.542E+02 0.124E+02   0.304E+00 0.133E+00 -.189E+00   -.626E-04 -.166E-02 0.184E-04
   0.238E+02 -.443E+01 0.261E+02   -.240E+02 0.447E+01 -.264E+02   0.183E+00 0.574E+00 0.375E+00   -.595E-05 0.134E-02 -.359E-03
   0.239E+02 0.417E+02 0.803E+00   -.243E+02 -.419E+02 -.116E+01   0.504E+00 0.166E+00 0.567E+00   0.397E-04 0.138E-02 -.154E-03
   -.252E+01 0.171E+02 0.374E+01   0.253E+01 -.170E+02 -.377E+01   0.117E+00 -.258E+00 0.359E+00   0.629E-03 -.462E-03 0.346E-03
   -.420E+01 0.116E+01 -.300E+02   0.428E+01 -.748E+00 0.304E+02   -.812E-01 -.526E+00 -.505E+00   -.777E-03 -.176E-03 -.762E-03
   0.535E+01 0.301E+02 0.181E+02   -.540E+01 -.301E+02 -.182E+02   0.294E+00 -.131E+00 -.262E+00   -.918E-03 -.308E-03 0.563E-03
   -.117E+02 -.432E+02 0.718E+01   0.119E+02 0.439E+02 -.737E+01   -.286E-01 -.103E+01 0.112E+00   0.527E-03 -.104E-02 -.303E-03
   -.622E+01 -.201E+02 0.152E+02   0.640E+01 0.199E+02 -.158E+02   0.137E-01 -.346E-01 0.105E+01   0.489E-03 -.263E-03 -.578E-03
   0.157E+02 -.596E+02 -.320E+02   -.157E+02 0.599E+02 0.325E+02   -.775E+00 -.221E+00 0.112E-02   -.445E-04 0.517E-03 0.806E-03
   -.440E+01 -.503E+02 0.318E+02   0.427E+01 0.509E+02 -.321E+02   0.763E-01 -.583E+00 0.121E+00   -.512E-03 0.409E-03 -.335E-03
   0.169E+02 -.169E+02 0.441E+02   -.173E+02 0.165E+02 -.442E+02   0.151E+00 0.597E+00 -.319E+00   0.461E-03 -.310E-03 0.769E-03
   0.384E+02 -.260E+02 -.310E+02   -.389E+02 0.260E+02 0.312E+02   0.561E+00 0.106E+00 -.207E+00   0.150E-03 0.233E-03 0.545E-03
   0.234E+02 -.362E+02 -.444E+02   -.239E+02 0.364E+02 0.447E+02   0.846E+00 -.253E+00 -.501E+00   -.183E-03 -.253E-04 -.119E-02
   -.312E+02 -.401E+02 -.172E+02   0.317E+02 0.402E+02 0.173E+02   -.104E+01 0.283E+00 -.181E+00   -.109E-02 -.729E-04 -.756E-04
   -.239E+02 0.195E+01 0.240E+02   0.242E+02 -.220E+01 -.240E+02   -.464E+00 0.250E+00 -.443E+00   0.899E-03 -.161E-03 0.257E-03
   0.187E+02 0.370E+02 0.204E+02   -.191E+02 -.373E+02 -.206E+02   -.266E+00 0.368E+00 -.334E+00   -.496E-03 0.325E-03 -.623E-03
   0.174E+01 0.502E+02 -.205E+02   -.133E+01 -.506E+02 0.211E+02   -.810E-01 0.430E+00 -.248E+00   0.639E-03 -.456E-03 0.988E-03
   0.345E+02 0.582E+02 -.814E+01   -.350E+02 -.586E+02 0.834E+01   -.105E+00 0.227E+00 0.435E+00   0.421E-03 -.739E-04 -.111E-02
   0.262E+02 0.598E+02 -.286E+02   -.266E+02 -.601E+02 0.287E+02   0.552E-01 0.652E+00 0.478E+00   -.404E-03 0.428E-03 0.769E-03
   0.456E+01 0.552E+01 0.336E+01   -.199E-12 0.142E-13 -.426E-13   -.457E+01 -.546E+01 -.331E+01   -.211E-03 -.264E-02 0.249E-02

 POSITION                                       TOTAL-FORCE (eV/Angst)
      0.53795      2.94095      3.88035         0.369091     -0.167682      0.254253
      0.71878      3.20364     12.41680         0.070694     -0.370310     -0.171962
      4.85919      7.96125      8.45275        -0.344054     -0.339266     -0.246108
     -3.17447      8.06655      8.67563        -0.175791      0.125606     -0.291157
     -3.15158      1.65209      8.24943        -0.157523      0.534886     -0.184413
      4.72906      3.09703      8.09273        -0.183275     -0.449986     -0.044095
     -0.08308      8.54041     12.64224         0.216963      0.078684     -0.045923
      0.43121      8.07307      4.16712         0.246538      0.178654      0.074152
      0.61285     11.46208      0.66874         0.829472      0.117459     -0.681794
      0.92171     11.14775      8.23388         0.331941      0.607586      0.400705
     -3.26978     11.35520     12.53396        -0.473008      0.281016      0.200363
     -3.70542     11.10743      4.21648        -0.235151      0.256826      0.336566
     -3.49006      5.58631     12.30425        -0.685309     -0.131316      0.089835
     -3.39313      5.41218      4.36172        -1.061134      0.049528     -0.670044
     -7.65529      5.81226      8.10178         1.004579     -0.336349      0.111705
      0.61828      5.57370      8.38950         0.892718     -1.099909     -0.268595
      4.09300      8.66896      4.80143         0.541151     -0.643748     -0.103771
     -3.01492      8.34503      3.72203        -0.048930      0.088675      0.054347
     -6.63791      2.94050      7.64664        -0.102562      0.239212      0.351922
      0.50967      2.48421      7.63797         0.135013     -0.519432      0.192238
     -0.25998      8.69142      0.39043         0.268615      0.086361     -0.007423
      0.51241      8.24906      8.55937         0.083997      0.888374      0.057569
     -3.55622      2.50323     11.99163        -0.000023      0.616391      0.096116
      4.29309      2.54031     11.85716         0.191495     -0.061692      0.231327
     -5.64555      6.01275     10.26887         0.130412     -0.120766      0.341597
      2.60773      5.85540     10.52951        -0.019666     -0.137080     -0.085253
      2.75144      5.56560      6.32985         0.259219     -0.090491     -0.350516
     -5.58253      6.90314      6.13241         0.093845     -0.355075     -0.060852
     -1.79609     10.98932     10.05187         0.157178     -0.211368      0.508953
     -1.28334      0.06380      2.67709        -0.786718      0.057459      0.460757
     -1.03002      0.52936     14.55508        -0.050760     -0.108682     -0.185196
     -1.31642     10.53247      6.44515        -0.215229      0.215931     -0.457848
      2.31648     11.46917      3.38977         0.127649      0.061162     -0.037501
      1.70106     11.33015     11.36713         0.431529     -0.065888     -0.222053
      3.99988     11.13735      7.84858        -0.521893      0.378852     -0.148853
     -5.14223     10.71140      7.50475        -0.117871      0.023796     -0.442571
     -1.28623      5.39044     14.31795        -0.623168      0.059669     -0.517218
     -1.48646      5.27727      6.28493         0.296117      0.068663      0.247052
     -1.44134      5.38607     10.21124        -0.540786     -0.127201      0.629771
     -1.35385      4.86579      1.79091        -0.335365      0.321451      0.583921
    total drift:                               -0.002865      0.058347      0.049208

  FREE ENERGIE OF THE ION-ELECTRON SYSTEM (eV)
  free  energy   TOTEN  =     -1426.13246835 eV

  energy  without entropy=    -1426.13246835  energy(sigma->0) =    -1426.13246835

 stress matrix after NEB project (eV)
      1.78511      1.32295      2.94960
      1.32297      1.76066     -1.69501
      2.94972     -1.69513      3.76130
  FORCES: max atom, RMS     1.441835    0.644675
  FORCE total and by dimension    4.077285    1.099909
  Stress total and by dimension    6.861624    3.761299

 total charge

# of ion       s       p       d       tot
    1        1.787   4.719   0.020   6.526
    2        1.788   4.719   0.023   6.529
    3        1.793   4.720   0.032   6.544
    4        1.790   4.720   0.028   6.538
    5        1.789   4.719   0.026   6.533
    6        1.786   4.719   0.020   6.525
    7        1.786   4.715   0.018   6.519
    8        1.786   4.718   0.019   6.523
    9        1.544   0.434   9.832  11.809
   10        1.548   0.390   9.824  11.763
   11        1.542   0.428   9.827  11.798
   12        1.542   0.379   9.821  11.742
   13        1.547   0.419   9.829  11.796
   14        1.548   0.431   9.831  11.810
   15        1.553   0.443   9.837  11.833
   16        1.546   0.497   9.847  11.890
   17        1.618   3.271   0.007   4.896
   18        1.617   3.295   0.008   4.919
   19        1.612   3.272   0.003   4.888
   20        1.612   3.274   0.004   4.890
   21        1.615   3.290   0.007   4.912
   22        1.620   3.302   0.013   4.934
   23        1.614   3.269   0.006   4.889
   24        1.614   3.270   0.005   4.889
   25        1.615   3.290   0.007   4.911
   26        1.615   3.287   0.007   4.909
   27        1.615   3.290   0.007   4.913
   28        1.615   3.268   0.005   4.888
   29        1.617   3.292   0.007   4.916
   30        1.619   3.285   0.010   4.914
   31        1.616   3.270   0.006   4.892
   32        1.615   3.278   0.006   4.900
   33        1.615   3.269   0.005   4.890
   34        1.614   3.261   0.004   4.880
   35        1.614   3.272   0.004   4.890
   36        1.613   3.282   0.004   4.899
   37        1.617   3.306   0.010   4.933
   38        1.620   3.294   0.011   4.925
   39        1.619   3.305   0.011   4.935
   40        1.615   3.299   0.007   4.921
tot         65.449 119.961  78.998 264.408