 vasp.5.4.4.18Apr17-6-g9f103f2a35 (build Jun 22 2020 09:27:21) complex

 INCAR:
 POTCAR:    PAW_PBE Cs_sv 08Apr2002
 POTCAR:    PAW_PBE Pb_d 06Sep2000
 POTCAR:    PAW_PBE Br 06Sep2000
 POTCAR:    PAW_PBE Cs_sv 08Apr2002
   VRHFIN =Cs: 5s5p6s

   TITEL  = PAW_PBE Cs_sv 08Apr2002
   POMASS =  132.900; ZVAL   =    9.000    mass and valenz
   ENMAX  =  220.318; ENMIN  =  165.238 eV

 POTCAR:    PAW_PBE Pb_d 06Sep2000
   VRHFIN =Pb:

   TITEL  = PAW_PBE Pb_d 06Sep2000
   POMASS =  207.200; ZVAL   =   14.000    mass and valenz
   ENMAX  =  237.835; ENMIN  =  178.376 eV

 POTCAR:    PAW_PBE Br 06Sep2000
   VRHFIN =Br: s2p5

   TITEL  = PAW_PBE Br 06Sep2000
   POMASS =   79.904; ZVAL   =    7.000    mass and valenz
   ENMAX  =  216.285; ENMIN  =  162.214 eV

 Optimization of the real space projectors (new method)

 maximal supplied QI-value         = 15.12
 optimisation between [QCUT,QGAM] = [  8.77, 17.69] = [ 21.53, 87.61] Ry
 Optimized for a Real-space Cutoff    1.85 Angstroem

   l    n(q)    QCUT    max X(q) W(low)/X(q) W(high)/X(q)  e(spline)
   0     10     8.768    25.322    0.81E-04    0.51E-04    0.48E-06
   0     10     8.768    99.187    0.78E-04    0.50E-04    0.47E-06
   1      9     8.768    11.761    0.21E-03    0.20E-03    0.37E-06
   1      9     8.768     8.275    0.24E-03    0.22E-03    0.41E-06
   2      9     8.768     3.829    0.23E-04    0.15E-03    0.18E-06
 Optimization of the real space projectors (new method)

[...]

   l    n(q)    QCUT    max X(q) W(low)/X(q) W(high)/X(q)  e(spline)
   2      7     8.768     3.846    0.48E-04    0.11E-03    0.11E-06
   2      7     8.768     8.593    0.20E-03    0.22E-04    0.24E-06
   0      8     8.768    20.082    0.68E-04    0.88E-04    0.41E-07
   0      8     8.768     8.597    0.89E-04    0.13E-03    0.59E-07
   1      8     8.768    33.223    0.15E-03    0.53E-04    0.87E-07
   1      8     8.768    15.899    0.14E-03    0.44E-04    0.78E-07
 Optimization of the real space projectors (new method)

 maximal supplied QI-value         = 17.95
 optimisation between [QCUT,QGAM] = [  8.80, 17.59] = [ 21.67, 86.68] Ry
 Optimized for a Real-space Cutoff    1.59 Angstroem

   l    n(q)    QCUT    max X(q) W(low)/X(q) W(high)/X(q)  e(spline)
   0      8     8.797   175.082    0.82E-04    0.14E-03    0.89E-07
   0      8     8.797   174.004    0.79E-04    0.14E-03    0.86E-07
   1      8     8.797    54.315    0.16E-03    0.14E-04    0.30E-06
   1      8     8.797    42.441    0.16E-03    0.14E-04    0.30E-06
   2      7     8.797     3.596    0.92E-04    0.15E-03    0.85E-07
  PAW_PBE Cs_sv 08Apr2002               :
  PAW_PBE Pb_d 06Sep2000                :
  PAW_PBE Br 06Sep2000                  :

 POSCAR: Cs8 Pb8 Br24
  positions in direct lattice
  velocities in cartesian coordinates

 METAGGA = SCAN     LMAXTAU =  6    LMIXTAU =  F

 VTST: version 3.2, (02/03/18)

 CHAIN: initializing optimizer

 OPT: Using VASP Conjugate-Gradient optimizer
 CHAIN: Read ICHAIN            0

 POSCAR: Cs8 Pb8 Br24
  positions in direct lattice
  velocities in cartesian coordinates

 ion  position               nearest neighbor table
   1  0.221  0.250  0.250-
   2  0.250  0.250  0.750-
   3  0.250  0.750  0.250-
   4  0.279  0.750  0.750-
   5  0.721  0.250  0.250-
   6  0.750  0.250  0.750-
   7  0.750  0.750  0.250-
   8  0.779  0.750  0.750-
   9  0.000  0.000  0.000-  25 2.98  26 2.98  33 2.98  37 2.98  17 2.99  19 2.99
  10  0.000  0.000  0.500-  25 2.98  26 2.98  34 2.98  38 2.98  18 2.99  20 2.99
  11  0.000  0.500  0.000-  27 2.98  28 2.98  35 2.98  39 2.98  17 2.99  19 2.99
  12  0.000  0.500  0.500-  27 2.98  28 2.98  36 2.98  40 2.98  18 2.99  20 2.99
  13  0.500  0.000  0.000-  21 2.98  23 2.98  33 2.98  37 2.98  29 2.99  30 2.99
  14  0.500  0.000  0.500-  22 2.98  24 2.98  34 2.98  38 2.98  29 2.99  30 2.99
  15  0.500  0.500  0.000-  21 2.98  23 2.98  35 2.98  39 2.98  31 2.99  32 2.99
  16  0.500  0.500  0.500-  22 2.98  24 2.98  36 2.98  40 2.98  31 2.99  32 2.99
  17  0.967  0.250  0.041-   9 2.99  11 2.99
  18  0.967  0.250  0.459-  10 2.99  12 2.99
  19  0.033  0.750  0.959-   9 2.99  11 2.99
  20  0.033  0.750  0.541-  10 2.99  12 2.99
  21  0.531  0.250  0.966-  13 2.98  15 2.98
  22  0.531  0.250  0.534-  14 2.98  16 2.98
  23  0.469  0.750  0.034-  13 2.98  15 2.98
  24  0.469  0.750  0.466-  14 2.98  16 2.98
  25  0.031  0.966  0.250-   9 2.98  10 2.98
  26  0.969  0.034  0.750-   9 2.98  10 2.98
  27  0.031  0.534  0.250-  11 2.98  12 2.98
  28  0.969  0.466  0.750-  11 2.98  12 2.98
  29  0.467  0.041  0.250-  13 2.99  14 2.99
  30  0.533  0.959  0.750-  13 2.99  14 2.99
  31  0.467  0.459  0.250-  15 2.99  16 2.99
  32  0.533  0.541  0.750-  15 2.99  16 2.99
  33  0.250  0.029  0.971-   9 2.98  13 2.98
  34  0.250  0.029  0.529-  10 2.98  14 2.98
  35  0.250  0.471  0.971-  11 2.98  15 2.98
  36  0.250  0.471  0.529-  12 2.98  16 2.98
  37  0.750  0.971  0.029-   9 2.98  13 2.98
  38  0.750  0.971  0.471-  10 2.98  14 2.98
  39  0.750  0.529  0.029-  11 2.98  15 2.98
  40  0.750  0.529  0.471-  12 2.98  16 2.98

  LATTYP: Found a simple tetragonal cell.
 ALAT       =    11.7132505335
 C/A-ratio  =     1.0053302022

  Lattice vectors:

 A1 = (   0.0000000000,  11.7132505335,   0.0000000000)
 A2 = (   0.0000000000,   0.0000000000, -11.7132505335)
 A3 = ( -11.7756845271,   0.0000000000,   0.0000000000)

Analysis of symmetry for initial positions (statically):
 Subroutine PRICEL returns:
 Original cell was already a primitive cell.

 Routine SETGRP: Setting up the symmetry group for a
 simple tetragonal supercell.

 Subroutine GETGRP returns: Found 16 space group operations
 (whereof  2 operations were pure point group operations)
 out of a pool of 16 trial point group operations.

The static configuration has the point symmetry S_2 .
 The point group associated with its full space group is D_4h.

Analysis of symmetry for dynamics (positions and initial velocities):
 Subroutine PRICEL returns:
 Original cell was already a primitive cell.

 Routine SETGRP: Setting up the symmetry group for a
 simple tetragonal supercell.

 Subroutine GETGRP returns: Found 16 space group operations
 (whereof  2 operations were pure point group operations)
 out of a pool of 16 trial point group operations.

The dynamic configuration has the point symmetry S_2 .
 The point group associated with its full space group is D_4h.

 Subroutine INISYM returns: Found 16 space group operations
 (whereof  2 operations are pure point group operations),
 and found     1 'primitive' translations

 KPOINTS: 1x1x1

Automatic generation of k-mesh.
Space group operators:
 irot       det(A)        alpha          n_x          n_y          n_z        tau_x        tau_y        tau_z
    1     1.000000     0.000000     1.000000     0.000000     0.000000     0.000000     0.000000     0.000000
    2    -1.000000     0.000000     1.000000     0.000000     0.000000     0.000000     0.000000     0.000000
    3     1.000000    90.000000     1.000000     0.000000     0.000000    -0.500000     0.000000    -0.500000
    4    -1.000000    90.000000     1.000000     0.000000     0.000000    -0.500000     0.000000    -0.500000
    5     1.000000   180.000000     1.000000     0.000000     0.000000     0.000000     0.500000    -0.500000
    6    -1.000000   180.000000     1.000000     0.000000     0.000000     0.000000     0.500000    -0.500000
    7     1.000000    90.000000    -1.000000     0.000000     0.000000    -0.500000     0.500000     0.000000
    8    -1.000000    90.000000    -1.000000     0.000000     0.000000    -0.500000     0.500000     0.000000
    9     1.000000   180.000000     0.000000     0.000000     1.000000    -0.000000     0.000000    -0.500000
   10    -1.000000   180.000000     0.000000     0.000000     1.000000     0.000000     0.000000    -0.500000
   11     1.000000   180.000000     0.000000    -0.707107     0.707107    -0.500000     0.000000     0.000000
   12    -1.000000   180.000000     0.000000    -0.707107     0.707107    -0.500000     0.000000     0.000000
   13     1.000000   180.000000     0.000000     1.000000     0.000000    -0.000000     0.500000     0.000000
   14    -1.000000   180.000000     0.000000     1.000000     0.000000     0.000000     0.500000     0.000000
   15     1.000000   180.000000     0.000000     0.707107     0.707107    -0.500000     0.500000    -0.500000
   16    -1.000000   180.000000     0.000000     0.707107     0.707107    -0.500000     0.500000    -0.500000

 Subroutine IBZKPT returns following result:

 Found      6 irreducible k-points:

 Following reciprocal coordinates:
            Coordinates               Weight
  0.000000  0.000000  0.000000      1.000000
  0.500000  0.000000  0.000000      1.000000
  0.000000  0.500000  0.000000      2.000000
  0.500000  0.500000  0.000000      2.000000
  0.000000  0.500000  0.500000      1.000000
  0.500000  0.500000  0.500000      1.000000

 Following cartesian coordinates:
            Coordinates               Weight
  0.000000  0.000000  0.000000      1.000000
  0.042460  0.000000  0.000000      1.000000
  0.000000  0.042687  0.000000      2.000000
  0.042460  0.042687  0.000000      2.000000
  0.000000  0.042687  0.042687      1.000000
  0.042460  0.042687  0.042687      1.000000

 SYSTEM =  CsPbBr3 cubic bulk
 POSCAR =  Cs8 Pb8 Br24

 Startparameter for this run:
   NWRITE =      2    write-flag & timer
   PREC   = accura    normal or accurate (medium, high low for compatibility)
   ISTART =      0    job   : 0-new  1-cont  2-samecut
   ICHARG =      2    charge: 1-file 2-atom 10-const
   ISPIN  =      1    spin polarized calculation?
   LNONCOLLINEAR =      F non collinear calculations
   LSORBIT =      F    spin-orbit coupling
   INIWAV =      1    electr: 0-lowe 1-rand  2-diag
   LASPH  =      T    aspherical Exc in radial PAW
   METAGGA=      F    non-selfconsistent MetaGGA calc.

 Electronic Relaxation 1
   ENCUT  =  300.0 eV  22.05 Ry    4.70 a.u.  16.63 16.54 16.54*2*pi/ulx,y,z
   ENINI  =  300.0     initial cutoff
   ENAUG  =  503.9 eV  augmentation charge cutoff
   NELM   =    200;   NELMIN=  2; NELMDL=  0     # of ELM steps
   EDIFF  = 0.1E-05   stopping-criterion for ELM
   LREAL  =      T    real-space projection
   NLSPLINE    = F    spline interpolate recip. space projectors
   LCOMPAT=      F    compatible to vasp.4.4
   GGA_COMPAT  = T    GGA compatible to vasp.4.4-vasp.4.6
   LMAXPAW     = -100 max onsite density
   LMAXMIX     =    2 max onsite mixed and CHGCAR
   VOSKOWN=      0    Vosko Wilk Nusair interpolation
   ROPT   =   -0.00025  -0.00025  -0.00025
 Ionic relaxation
   EDIFFG = -.1E-01   stopping-criterion for IOM
   NSW    =      0    number of steps for IOM
   NBLOCK =      1;   KBLOCK =      1    inner block; outer block
   IBRION =     -1    ionic relax: 0-MD 1-quasi-New 2-CG
   NFREE  =      1    steps in history (QN), initial steepest desc. (CG)
   ISIF   =      3    stress and relaxation
   IWAVPR =     10    prediction:  0-non 1-charg 2-wave 3-comb
   ISYM   =      2    0-nonsym 1-usesym 2-fastsym
   LCORR  =      T    Harris-Foulkes like correction to forces

   POTIM  = 0.5000    time-step for ionic-motion
[...]
     23     -16.3806      2.00000
     24     -16.3806      2.00000
     25     -16.2608      2.00000
     26     -16.2608      2.00000
     27     -16.2608      2.00000
     28     -16.2608      2.00000
     29     -16.2608      2.00000
     30     -16.2608      2.00000
     31     -16.2608      2.00000
     32     -16.2608      2.00000
     33     -16.2568      2.00000
     34     -16.2568      2.00000
     35     -16.2568      2.00000
     36     -16.2568      2.00000
     37     -16.2568      2.00000
     38     -16.2568      2.00000
     39     -16.2568      2.00000
     40     -16.2568      2.00000
     41     -16.2531      2.00000
     42     -16.2531      2.00000
     43     -16.2531      2.00000
     44     -16.2531      2.00000
     45     -16.2531      2.00000
     46     -16.2531      2.00000
     47     -16.2530      2.00000
     48     -16.2530      2.00000
     49     -14.1986      2.00000
     50     -14.1986      2.00000
     51     -14.1986      2.00000
     52     -14.1986      2.00000
     53     -14.1961      2.00000
     54     -14.1961      2.00000
     55     -14.1912      2.00000
     56     -14.1912      2.00000
     57     -13.8781      2.00000
     58     -13.8781      2.00000
     59     -13.8747      2.00000
     60     -13.8747      2.00000
[...]
    202       6.1667      0.00000
    203       6.1931      0.00000
    204       6.1931      0.00000
    205       6.1931      0.00000
    206       6.1931      0.00000
    207       6.2007      0.00000
    208       6.2007      0.00000
    209       6.4981      0.00000
    210       6.5045      0.00000
    211       6.5738      0.00000
    212       6.5756      0.00000
    213       6.5837      0.00000
    214       6.5976      0.00000
    215       6.6046      0.00000
    216       6.6351      0.00000

 soft charge-density along one line, spin component           1
         0         1         2         3         4         5         6         7         8         9
 total charge-density along one line

------------------------ aborting loop because EDIFF is reached ----------------------------------------

 total charge

# of ion       s       p       d       tot
    1        1.783   4.718   0.014   6.515
    2        1.785   4.719   0.017   6.520
    3        1.786   4.719   0.018   6.523
    4        1.783   4.718   0.014   6.515
    5        1.783   4.718   0.014   6.515
    6        1.786   4.719   0.018   6.523
    7        1.785   4.719   0.017   6.520
    8        1.783   4.718   0.014   6.515
    9        1.555   0.423   9.835  11.814
   10        1.555   0.423   9.835  11.814
   11        1.555   0.423   9.835  11.814
   12        1.555   0.423   9.835  11.814
   13        1.554   0.425   9.835  11.815
   14        1.554   0.425   9.835  11.815
   15        1.554   0.425   9.835  11.815
   16        1.554   0.425   9.835  11.815
   17        1.615   3.265   0.007   4.887
   18        1.615   3.265   0.007   4.887
   19        1.615   3.265   0.007   4.887
   20        1.615   3.265   0.007   4.887
   21        1.616   3.268   0.007   4.891
   22        1.616   3.268   0.007   4.891
   23        1.616   3.268   0.007   4.891
   24        1.616   3.268   0.007   4.891
   25        1.613   3.306   0.006   4.925
   26        1.613   3.306   0.006   4.925
   27        1.613   3.306   0.006   4.925
   28        1.613   3.306   0.006   4.925
   29        1.613   3.301   0.006   4.919
   30        1.613   3.301   0.006   4.919
   31        1.613   3.301   0.006   4.919
   32        1.613   3.301   0.006   4.919
   33        1.614   3.285   0.006   4.906
   34        1.614   3.285   0.006   4.906
   35        1.614   3.285   0.006   4.906
   36        1.614   3.285   0.006   4.906
   37        1.614   3.285   0.006   4.906
   38        1.614   3.285   0.006   4.906
   39        1.614   3.285   0.006   4.906
   40        1.614   3.285   0.006   4.906
tot         65.454 119.986  78.960 264.401

  FORCE on cell =-STRESS in cart. coord.  units (eV):
  Direction    XX          YY          ZZ          XY          YZ          ZX
  Alpha Z   893.29776   893.29776   893.29776
  Ewald   -6119.01195 -6129.78750 -6129.78750    -0.00000    -0.00000     0.00000
  Hartree  2456.10262  2473.29546  2473.29546    -0.00000    -0.00000    -0.00000
  E(xc)   -1477.97573 -1478.05422 -1477.82726     0.00000    -0.00000     0.00002
  Local   -2867.73551 -2875.18877 -2875.18877    -0.00000    -0.00000     0.00000
  n-local  1801.63365  1801.84874  1800.69221    -0.00001    -0.00000     0.00000
  augment   812.13447   812.23594   812.23574    -0.00000    -0.00007    -0.00002
  Kinetic  4500.90160  4496.80059  4507.28070     0.00003    -0.00002     0.00001
  Fock        0.00000     0.00000     0.00000     0.00000     0.00000     0.00000
  Total      -0.65308    -0.77684    -0.77684    -0.00000     0.00000     0.00000
  in kB      -0.64765    -0.77037    -0.77037    -0.00000     0.00000     0.00000

 VOLUME and BASIS-vectors are now :
  energy-cutoff  :      300.00
  volume of cell :     1615.63
      direct lattice vectors                 reciprocal lattice vectors
    11.775684527  0.000000000 -0.000000000     0.084920753  0.000000000  0.000000000
    -0.000000000 11.713250534 -0.000000000     0.000000000  0.085373398  0.000000000
     0.000000000 -0.000000000 11.713250534     0.000000000  0.000000000  0.085373398

  length of vectors
    11.775684527 11.713250534 11.713250534     0.084920753  0.085373398  0.085373398

 FORCES acting on ions
    electron-ion (+dipol)            ewald-force                    non-local-force                 convergence-correction
   -.188E+02 -.126E-10 0.188E-06   0.187E+02 0.426E-13 -.178E-14   0.569E-01 0.000E+00 0.515E-25   0.133E-03 0.229E-13 -.628E-12
   -.112E-06 -.347E-08 0.217E-08   0.102E-13 0.000E+00 0.000E+00   0.000E+00 0.000E+00 -.699E-25   0.697E-13 0.173E-12 0.440E-13
   0.127E-06 -.351E-08 -.187E-09   0.176E-14 0.444E-14 0.107E-13   0.136E-19 -.414E-24 -.101E-23   -.492E-13 0.211E-13 0.345E-12
   0.188E+02 -.124E-10 -.216E-06   -.187E+02 0.266E-13 0.151E-13   -.569E-01 0.000E+00 0.266E-24   -.133E-03 -.120E-12 0.956E-12
   -.188E+02 -.781E-11 0.216E-06   0.187E+02 0.213E-13 0.000E+00   0.569E-01 0.165E-23 -.216E-24   0.133E-03 0.810E-13 -.940E-12
   -.138E-06 -.364E-08 0.351E-09   -.370E-13 0.711E-14 0.711E-14   -.136E-19 0.000E+00 0.836E-24   -.119E-12 0.255E-12 -.290E-12
   0.102E-06 -.345E-08 -.217E-08   0.362E-13 0.000E+00 0.000E+00   0.000E+00 0.103E-24 0.690E-25   0.683E-13 -.478E-13 0.855E-13
   0.188E+02 -.982E-11 -.188E-06   -.187E+02 0.213E-13 0.711E-14   -.569E-01 0.000E+00 -.823E-24   -.133E-03 -.209E-12 0.583E-12
   -.409E-10 0.688E-13 0.123E-10   -.435E-13 0.575E-13 -.322E-13   0.000E+00 0.000E+00 0.413E-23   0.154E-12 0.134E-12 0.316E-12
   -.368E-10 0.134E-10 -.465E-11   -.675E-13 -.488E-13 -.258E-13   0.000E+00 0.000E+00 0.496E-23   0.130E-12 0.943E-15 -.693E-12
   -.281E-10 0.158E-11 -.127E-10   -.355E-14 -.711E-13 -.266E-13   0.000E+00 0.000E+00 -.498E-23   0.498E-13 -.163E-12 0.945E-13
   -.316E-10 0.156E-10 0.670E-11   -.568E-13 0.000E+00 -.284E-13   0.000E+00 0.000E+00 -.395E-23   -.405E-14 -.669E-13 -.488E-12
   -.201E-10 0.918E-11 -.543E-11   -.808E-13 0.107E-13 0.333E-14   0.000E+00 0.000E+00 0.864E-23   -.115E-12 0.484E-12 0.462E-12
   -.195E-10 0.642E-11 -.100E-10   0.711E-14 -.613E-13 -.639E-13   0.000E+00 0.000E+00 0.861E-23   -.860E-13 0.369E-12 -.844E-12
   -.437E-10 0.695E-11 0.117E-10   -.568E-13 -.644E-13 -.506E-13   0.000E+00 0.000E+00 -.307E-23   0.124E-13 -.504E-12 0.141E-12
   -.495E-10 0.109E-11 0.824E-12   0.284E-13 0.000E+00 -.711E-14   0.000E+00 0.000E+00 -.690E-24   0.945E-13 -.415E-12 -.526E-12
   0.238E+02 -.144E-10 -.222E+02   -.240E+02 0.329E-13 0.225E+02   0.238E+00 -.331E-23 -.214E+00   0.225E-03 0.246E-13 -.115E-03
   0.238E+02 -.141E-10 0.222E+02   -.240E+02 0.284E-13 -.225E+02   0.238E+00 0.796E-22 0.214E+00   0.225E-03 0.739E-13 0.115E-03
   -.238E+02 -.149E-10 0.222E+02   0.240E+02 -.355E-14 -.225E+02   -.238E+00 0.165E-22 0.214E+00   -.225E-03 -.958E-13 0.115E-03
   -.238E+02 -.145E-10 -.222E+02   0.240E+02 -.355E-14 0.225E+02   -.238E+00 -.414E-24 -.214E+00   -.225E-03 -.126E-12 -.115E-03
   -.140E+02 -.140E-10 0.227E+02   0.142E+02 0.471E-13 -.229E+02   -.148E+00 0.662E-22 0.155E+00   -.415E-03 0.887E-13 -.695E-04
   -.140E+02 -.118E-10 -.227E+02   0.142E+02 0.639E-13 0.229E+02   -.148E+00 -.596E-22 -.155E+00   -.415E-03 0.128E-12 0.695E-04
   0.140E+02 -.153E-10 -.227E+02   -.142E+02 0.382E-13 0.229E+02   0.148E+00 -.662E-22 -.155E+00   0.415E-03 -.103E-12 0.695E-04
   0.140E+02 -.126E-10 0.227E+02   -.142E+02 0.355E-13 -.229E+02   0.148E+00 0.662E-22 0.155E+00   0.415E-03 -.130E-12 -.695E-04
   -.140E+02 0.227E+02 0.268E-06   0.142E+02 -.229E+02 0.355E-13   -.148E+00 0.155E+00 -.464E-22   -.415E-03 -.695E-04 0.119E-11
   0.140E+02 -.227E+02 -.268E-06   -.142E+02 0.229E+02 0.329E-13   0.148E+00 -.155E+00 0.624E-22   0.415E-03 0.695E-04 -.104E-11
   -.140E+02 -.227E+02 0.291E-06   0.142E+02 0.229E+02 0.284E-13   -.148E+00 -.155E+00 0.375E-23   -.415E-03 0.695E-04 0.128E-11
   0.140E+02 0.227E+02 -.291E-06   -.142E+02 -.229E+02 0.320E-13   0.148E+00 0.155E+00 -.498E-22   0.415E-03 -.695E-04 -.114E-11
   0.238E+02 -.222E+02 0.869E-07   -.240E+02 0.225E+02 0.204E-13   0.238E+00 -.214E+00 -.522E-22   0.225E-03 -.115E-03 -.199E-11
   -.238E+02 0.222E+02 -.869E-07   0.240E+02 -.225E+02 0.320E-13   -.238E+00 0.214E+00 0.451E-23   -.225E-03 0.115E-03 0.210E-11
   0.238E+02 0.222E+02 0.279E-07   -.240E+02 -.225E+02 0.284E-13   0.238E+00 0.214E+00 -.603E-22   0.225E-03 0.115E-03 -.200E-11
   -.238E+02 -.222E+02 -.279E-07   0.240E+02 0.225E+02 0.284E-13   -.238E+00 -.214E+00 -.301E-22   -.225E-03 -.115E-03 0.211E-11
   -.140E-07 -.177E+02 0.177E+02   0.138E-13 0.178E+02 -.178E+02   -.108E-18 -.122E+00 0.122E+00   -.190E-12 0.343E-03 -.343E-03
   -.932E-08 -.177E+02 -.177E+02   -.765E-15 0.178E+02 0.178E+02   0.108E-18 -.122E+00 -.122E+00   0.113E-13 0.343E-03 0.343E-03
   -.125E-07 0.177E+02 0.177E+02   -.289E-13 -.178E+02 -.178E+02   0.542E-19 0.122E+00 0.122E+00   -.824E-13 -.343E-03 -.343E-03
   -.109E-07 0.177E+02 -.177E+02   -.470E-13 -.178E+02 0.178E+02   0.000E+00 0.122E+00 -.122E+00   0.278E-13 -.343E-03 0.343E-03
   0.140E-07 0.177E+02 -.177E+02   -.360E-13 -.178E+02 0.178E+02   0.108E-18 0.122E+00 -.122E+00   0.110E-12 -.343E-03 0.343E-03
   0.927E-08 0.177E+02 0.177E+02   -.392E-13 -.178E+02 -.178E+02   -.108E-18 0.122E+00 0.122E+00   -.971E-13 -.343E-03 -.343E-03
   0.124E-07 -.177E+02 -.177E+02   0.398E-14 0.178E+02 0.178E+02   -.542E-19 -.122E+00 -.122E+00   0.742E-14 0.343E-03 0.343E-03
   0.108E-07 -.177E+02 0.177E+02   0.849E-15 0.178E+02 -.178E+02   0.000E+00 -.122E+00 0.122E+00   -.119E-12 0.343E-03 -.343E-03
   -.227E-07 -.144E-07 0.143E-09   -.267E-13 0.746E-13 -.142E-13   0.000E+00 0.416E-16 0.139E-16   0.227E-12 -.914E-13 -.152E-11

 POSITION                                       TOTAL-FORCE (eV/Angst)
      2.59876      2.92831      2.92831         0.005982     -0.000000      0.000000
      2.94392      2.92831      8.78494         0.000000     -0.000000      0.000000
      2.94392      8.78494      2.92831        -0.000000     -0.000000      0.000000
      3.28908      8.78494      8.78494        -0.005982     -0.000000      0.000000
      8.48660      2.92831      2.92831         0.005982     -0.000000      0.000000
      8.83176      2.92831      8.78494         0.000000     -0.000000      0.000000
      8.83176      8.78494      2.92831         0.000000     -0.000000      0.000000
      9.17692      8.78494      8.78494        -0.005982     -0.000000      0.000000
      0.00000      0.00000      0.00000         0.000000     -0.000000      0.000000
      0.00000      0.00000      5.85663         0.000000     -0.000000      0.000000
      0.00000      5.85663      0.00000         0.000000     -0.000000      0.000000
      0.00000      5.85663      5.85663         0.000000     -0.000000      0.000000
      5.88784      0.00000      0.00000         0.000000     -0.000000      0.000000
      5.88784      0.00000      5.85663         0.000000     -0.000000      0.000000
      5.88784      5.85663      0.00000         0.000000     -0.000000      0.000000
      5.88784      5.85663      5.85663         0.000000     -0.000000      0.000000
     11.38704      2.92831      0.48162        -0.004694     -0.000000      0.014238
     11.38704      2.92831      5.37501        -0.004694     -0.000000     -0.014238
      0.38864      8.78494     11.23163         0.004694     -0.000000     -0.014238
      0.38864      8.78494      6.33825         0.004694     -0.000000      0.014238
      6.25726      2.92831     11.31521        -0.007373     -0.000000     -0.014570
      6.25726      2.92831      6.25467        -0.007373     -0.000000      0.014570
      5.51843      8.78494      0.39804         0.007373     -0.000000      0.014570
      5.51843      8.78494      5.45858         0.007373     -0.000000     -0.014570
      0.36942     11.31521      2.92831        -0.007373     -0.014570      0.000000
     11.40627      0.39804      8.78494         0.007373      0.014570      0.000000
      0.36942      6.25467      2.92831        -0.007373      0.014570      0.000000
     11.40627      5.45858      8.78494         0.007373     -0.014570      0.000000
      5.49920      0.48162      2.92831        -0.004694      0.014238      0.000000
      6.27648     11.23163      8.78494         0.004694     -0.014238      0.000000
      5.49920      5.37501      2.92831        -0.004694     -0.014238      0.000000
      6.27648      6.33825      8.78494         0.004694      0.014238      0.000000
      2.94392      0.33778     11.37548         0.000000      0.012932     -0.012932
      2.94392      0.33778      6.19440         0.000000      0.012932      0.012932
      2.94392      5.51885     11.37548         0.000000     -0.012932     -0.012932
      2.94392      5.51885      6.19440         0.000000     -0.012932      0.012932
      8.83176     11.37548      0.33778         0.000000     -0.012932      0.012932
      8.83176     11.37548      5.51885        -0.000000     -0.012932     -0.012932
      8.83176      6.19440      0.33778        -0.000000      0.012932      0.012932
      8.83176      6.19440      5.51885         0.000000      0.012932     -0.012932
    total drift:                               -0.000000     -0.000000      0.000000

  FREE ENERGIE OF THE ION-ELECTRON SYSTEM (eV)
  free  energy   TOTEN  =     -1429.54612686 eV

  energy  without entropy=    -1429.54612686  energy(sigma->0) =    -1429.54612686

 stress matrix after NEB project (eV)
     -0.65308     -0.00000      0.00000
     -0.00000     -0.77684      0.00000
      0.00000      0.00000     -0.77684
  FORCES: max atom, RMS     0.018288    0.012990
  FORCE total and by dimension    0.082159    0.014570
  Stress total and by dimension    1.278071    0.776835

 total charge

# of ion       s       p       d       tot
    1        1.783   4.718   0.014   6.515
    2        1.785   4.719   0.017   6.520
    3        1.786   4.719   0.018   6.523
    4        1.783   4.718   0.014   6.515
    5        1.783   4.718   0.014   6.515
    6        1.786   4.719   0.018   6.523
    7        1.785   4.719   0.017   6.520
    8        1.783   4.718   0.014   6.515
    9        1.555   0.423   9.835  11.814
   10        1.555   0.423   9.835  11.814
   11        1.555   0.423   9.835  11.814
   12        1.555   0.423   9.835  11.814
   13        1.554   0.425   9.835  11.815
   14        1.554   0.425   9.835  11.815
   15        1.554   0.425   9.835  11.815
   16        1.554   0.425   9.835  11.815
   17        1.615   3.265   0.007   4.887
   18        1.615   3.265   0.007   4.887
   19        1.615   3.265   0.007   4.887
   20        1.615   3.265   0.007   4.887
   21        1.616   3.268   0.007   4.891
   22        1.616   3.268   0.007   4.891
   23        1.616   3.268   0.007   4.891
   24        1.616   3.268   0.007   4.891
   25        1.613   3.306   0.006   4.925
   26        1.613   3.306   0.006   4.925
   27        1.613   3.306   0.006   4.925
   28        1.613   3.306   0.006   4.925
   29        1.613   3.301   0.006   4.919
   30        1.613   3.301   0.006   4.919
   31        1.613   3.301   0.006   4.919
   32        1.613   3.301   0.006   4.919
   33        1.614   3.285   0.006   4.906
   34        1.614   3.285   0.006   4.906
   35        1.614   3.285   0.006   4.906
   36        1.614   3.285   0.006   4.906
   37        1.614   3.285   0.006   4.906
   38        1.614   3.285   0.006   4.906
   39        1.614   3.285   0.006   4.906
   40        1.614   3.285   0.006   4.906
tot         65.454 119.986  78.960 264.401