 vasp.5.4.4.18Apr17-6-g9f103f2a35 (build Jun 29 2021 14:23:36) complex

 INCAR:
 POTCAR:    PAW_PBE Cs_sv 08Apr2002
 POTCAR:    PAW_PBE Pb_d 06Sep2000
 POTCAR:    PAW_PBE Br 06Sep2000
 POTCAR:    PAW_PBE Cs_sv 08Apr2002
   VRHFIN =Cs: 5s5p6s

   TITEL  = PAW_PBE Cs_sv 08Apr2002
   POMASS =  132.900; ZVAL   =    9.000    mass and valenz
   ENMAX  =  220.318; ENMIN  =  165.238 eV

   TITEL  = PAW_PBE Pb_d 06Sep2000
   POMASS =  207.200; ZVAL   =   14.000    mass and valenz
   ENMAX  =  237.835; ENMIN  =  178.376 eV

   TITEL  = PAW_PBE Br 06Sep2000
   POMASS =   79.904; ZVAL   =    7.000    mass and valenz
   ENMAX  =  216.285; ENMIN  =  162.214 eV

 Optimization of the real space projectors (new method)

 maximal supplied QI-value         = 15.12
 optimisation between [QCUT,QGAM] = [ 12.55, 25.10] = [ 44.09,176.36] Ry
 Optimized for a Real-space Cutoff    1.47 Angstroem

   l    n(q)    QCUT    max X(q) W(low)/X(q) W(high)/X(q)  e(spline)
   0     11    12.548    25.322    0.38E-04    0.18E-04    0.10E-05
   0     11    12.548    99.187    0.36E-04    0.17E-04    0.98E-06
   1     11    12.548    11.761    0.23E-03    0.31E-03    0.90E-06
   1     11    12.548     8.275    0.24E-03    0.34E-03    0.99E-06
   2     10    12.548     3.829    0.23E-03    0.26E-04    0.72E-06
 Optimization of the real space projectors (new method)

[...]

   l    n(q)    QCUT    max X(q) W(low)/X(q) W(high)/X(q)  e(spline)
   2      9    12.548     3.846    0.15E-03    0.13E-04    0.17E-06
   2      9    12.548     8.593    0.12E-03    0.38E-04    0.12E-06
   0     10    12.548    20.082    0.44E-04    0.25E-04    0.28E-06
   0     10    12.548     8.597    0.57E-04    0.35E-04    0.39E-06
   1     10    12.548    33.223    0.72E-04    0.14E-03    0.14E-06
   1     10    12.548    15.899    0.64E-04    0.13E-03    0.12E-06
 Optimization of the real space projectors (new method)

 maximal supplied QI-value         = 17.95
 optimisation between [QCUT,QGAM] = [ 12.39, 24.95] = [ 42.97,174.37] Ry
 Optimized for a Real-space Cutoff    1.20 Angstroem

   l    n(q)    QCUT    max X(q) W(low)/X(q) W(high)/X(q)  e(spline)
   0      9    12.387   175.082    0.21E-03    0.13E-03    0.49E-07
   0      9    12.387   174.004    0.20E-03    0.12E-03    0.48E-07
   1      8    12.387    54.315    0.17E-03    0.15E-03    0.16E-06
   1      8    12.387    42.441    0.17E-03    0.14E-03    0.16E-06
   2      8    12.387     3.596    0.23E-03    0.14E-03    0.41E-07
  PAW_PBE Cs_sv 08Apr2002               :
  PAW_PBE Pb_d 06Sep2000                :
  PAW_PBE Br 06Sep2000                  :

 POSCAR: Cs4 Pb4 Br12
  positions in direct lattice
  velocities in cartesian coordinates

 METAGGA = SCAN     LMAXTAU =  6    LMIXTAU =  F

 VTST: version 3.2, (02/03/18)

 CHAIN: initializing optimizer

 OPT: Using VASP Conjugate-Gradient optimizer
 CHAIN: Read ICHAIN            0

 POSCAR: Cs4 Pb4 Br12
  positions in direct lattice
  velocities in cartesian coordinates

 ion  position               nearest neighbor table
   1  0.063  0.250  0.480-
   2  0.437  0.750  0.980-
   3  0.563  0.250  0.020-
   4  0.937  0.750  0.520-
   5  0.000  0.000  0.000-  15 2.99  18 2.99  16 3.00  17 3.00  10 3.05  11 3.05
   6  0.500  0.000  0.500-  17 2.99  16 2.99  15 3.00  18 3.00   9 3.05  12 3.05
   7  0.500  0.500  0.500-  13 2.99  19 2.99  14 3.00  20 3.00   9 3.05  12 3.05
   8  0.000  0.500  0.000-  14 2.99  20 2.99  19 3.00  13 3.00  10 3.05  11 3.05
   9  0.502  0.750  0.453-   6 3.05   7 3.05
  10  0.998  0.250  0.953-   5 3.05   8 3.05
  11  0.002  0.750  0.047-   5 3.05   8 3.05
  12  0.498  0.250  0.547-   6 3.05   7 3.05
  13  0.308  0.472  0.186-   7 2.99   8 3.00
  14  0.192  0.528  0.686-   8 2.99   7 3.00
  15  0.808  0.028  0.314-   5 2.99   6 3.00
  16  0.692  0.972  0.814-   6 2.99   5 3.00
  17  0.308  0.028  0.186-   6 2.99   5 3.00
  18  0.192  0.972  0.686-   5 2.99   6 3.00
  19  0.692  0.528  0.814-   7 2.99   8 3.00
  20  0.808  0.472  0.314-   8 2.99   7 3.00

  LATTYP: Found a simple orthorhombic cell.
 ALAT       =     7.9319807319
 B/A-ratio  =     1.0591908620
 C/A-ratio  =     1.5275783474

  Lattice vectors:

 A1 = (   0.0000000000,   0.0000000000,   7.9319807319)
 A2 = (  -8.4014815090,   0.0000000000,   0.0000000000)
 A3 = (   0.0000000000, -12.1167220182,   0.0000000000)

Analysis of symmetry for initial positions (statically):
 Subroutine PRICEL returns:
 Original cell was already a primitive cell.

 Routine SETGRP: Setting up the symmetry group for a
 simple orthorhombic supercell.

 Subroutine GETGRP returns: Found  8 space group operations
 (whereof  2 operations were pure point group operations)
 out of a pool of  8 trial point group operations.

The static configuration has the point symmetry S_2 .
 The point group associated with its full space group is D_2h.

Analysis of symmetry for dynamics (positions and initial velocities):
 Subroutine PRICEL returns:
 Original cell was already a primitive cell.

 Routine SETGRP: Setting up the symmetry group for a
 simple orthorhombic supercell.

 Subroutine GETGRP returns: Found  8 space group operations
 (whereof  2 operations were pure point group operations)
 out of a pool of  8 trial point group operations.

The dynamic configuration has the point symmetry S_2 .
 The point group associated with its full space group is D_2h.

 Subroutine INISYM returns: Found  8 space group operations
 (whereof  2 operations are pure point group operations),
 and found     1 'primitive' translations

 KPOINTS: 1x1x1

Automatic generation of k-mesh.
Space group operators:
 irot       det(A)        alpha          n_x          n_y          n_z        tau_x        tau_y        tau_z
    1     1.000000     0.000000     1.000000     0.000000     0.000000     0.000000     0.000000     0.000000
    2    -1.000000     0.000000     1.000000     0.000000     0.000000     0.000000     0.000000     0.000000
    3     1.000000   180.000000     0.000000     1.000000     0.000000     0.000000    -0.500000     0.000000
    4    -1.000000   180.000000     0.000000     1.000000     0.000000     0.000000    -0.500000     0.000000
    5     1.000000   180.000000     1.000000     0.000000     0.000000    -0.500000    -0.500000     0.500000
    6    -1.000000   180.000000     1.000000     0.000000     0.000000    -0.500000    -0.500000     0.500000
    7     1.000000   180.000000     0.000000     0.000000     1.000000    -0.500000     0.000000     0.500000
    8    -1.000000   180.000000     0.000000     0.000000     1.000000    -0.500000     0.000000     0.500000

 Subroutine IBZKPT returns following result:

 Found    100 irreducible k-points:

 Following reciprocal coordinates:
            Coordinates               Weight
  0.000000  0.000000  0.000000      1.000000
  0.125000  0.000000  0.000000      2.000000
  0.250000  0.000000  0.000000      2.000000
  0.375000  0.000000  0.000000      2.000000
  0.500000  0.000000  0.000000      1.000000
  0.000000  0.166667  0.000000      2.000000
  0.125000  0.166667  0.000000      4.000000
  0.250000  0.166667  0.000000      4.000000
  0.375000  0.166667  0.000000      4.000000
  0.500000  0.166667  0.000000      2.000000
  0.000000  0.333333  0.000000      2.000000
  0.125000  0.333333  0.000000      4.000000
  0.250000  0.333333  0.000000      4.000000
  0.375000  0.333333  0.000000      4.000000
  0.500000  0.333333  0.000000      2.000000
  0.000000  0.500000  0.000000      1.000000
  0.125000  0.500000  0.000000      2.000000
  0.250000  0.500000  0.000000      2.000000
  0.375000  0.500000  0.000000      2.000000
  0.500000  0.500000  0.000000      1.000000
  0.000000  0.000000  0.125000      2.000000
  0.125000  0.000000  0.125000      4.000000
  0.250000  0.000000  0.125000      4.000000
  0.375000  0.000000  0.125000      4.000000
  0.500000  0.000000  0.125000      2.000000
  0.000000  0.166667  0.125000      4.000000
  0.125000  0.166667  0.125000      8.000000
  0.250000  0.166667  0.125000      8.000000
  0.375000  0.166667  0.125000      8.000000
  0.500000  0.166667  0.125000      4.000000
  0.000000  0.333333  0.125000      4.000000
  0.125000  0.333333  0.125000      8.000000
  0.250000  0.333333  0.125000      8.000000
  0.375000  0.333333  0.125000      8.000000
  0.500000  0.333333  0.125000      4.000000
  0.000000  0.500000  0.125000      2.000000
  0.125000  0.500000  0.125000      4.000000
  0.250000  0.500000  0.125000      4.000000
  0.375000  0.500000  0.125000      4.000000
  0.500000  0.500000  0.125000      2.000000
  0.000000  0.000000  0.250000      2.000000
  0.125000  0.000000  0.250000      4.000000
  0.250000  0.000000  0.250000      4.000000
  0.375000  0.000000  0.250000      4.000000
  0.500000  0.000000  0.250000      2.000000
  0.000000  0.166667  0.250000      4.000000
  0.125000  0.166667  0.250000      8.000000
  0.250000  0.166667  0.250000      8.000000
  0.375000  0.166667  0.250000      8.000000
  0.500000  0.166667  0.250000      4.000000
  0.000000  0.333333  0.250000      4.000000
  0.125000  0.333333  0.250000      8.000000
  0.250000  0.333333  0.250000      8.000000
  0.375000  0.333333  0.250000      8.000000
  0.500000  0.333333  0.250000      4.000000
  0.000000  0.500000  0.250000      2.000000
  0.125000  0.500000  0.250000      4.000000
  0.250000  0.500000  0.250000      4.000000
  0.375000  0.500000  0.250000      4.000000
  0.500000  0.500000  0.250000      2.000000
[...]
  0.000000  0.166667  0.500000      2.000000
  0.125000  0.166667  0.500000      4.000000
  0.250000  0.166667  0.500000      4.000000
  0.375000  0.166667  0.500000      4.000000
  0.500000  0.166667  0.500000      2.000000
  0.000000  0.333333  0.500000      2.000000
  0.125000  0.333333  0.500000      4.000000
  0.250000  0.333333  0.500000      4.000000
  0.375000  0.333333  0.500000      4.000000
  0.500000  0.333333  0.500000      2.000000
  0.000000  0.500000  0.500000      1.000000
  0.125000  0.500000  0.500000      2.000000
  0.250000  0.500000  0.500000      2.000000
  0.375000  0.500000  0.500000      2.000000
  0.500000  0.500000  0.500000      1.000000

 Following cartesian coordinates:
            Coordinates               Weight
  0.000000  0.000000  0.000000      1.000000
  0.014878  0.000000  0.000000      2.000000
  0.029757  0.000000  0.000000      2.000000
  0.044635  0.000000  0.000000      2.000000
  0.059513  0.000000  0.000000      1.000000
  0.000000  0.013755  0.000000      2.000000
  0.014878  0.013755  0.000000      4.000000
  0.029757  0.013755  0.000000      4.000000
  0.044635  0.013755  0.000000      4.000000
  0.059513  0.013755  0.000000      2.000000
  0.000000  0.027510  0.000000      2.000000
  0.014878  0.027510  0.000000      4.000000
  0.029757  0.027510  0.000000      4.000000
  0.044635  0.027510  0.000000      4.000000
  0.059513  0.027510  0.000000      2.000000
  0.000000  0.041265  0.000000      1.000000
  0.014878  0.041265  0.000000      2.000000
  0.029757  0.041265  0.000000      2.000000
  0.044635  0.041265  0.000000      2.000000
  0.059513  0.041265  0.000000      1.000000
  0.000000  0.000000  0.015759      2.000000
  0.014878  0.000000  0.015759      4.000000
[...]
 total energy-change (2. order) :-0.8199527E-06  (-0.1097078E-08)
 number of electron     176.0000000 magnetization
 augmentation part       -2.3740469 magnetization

 Broyden mixing:
  rms(total) = 0.35319E-04    rms(broyden)= 0.34216E-04
  rms(prec ) = 0.37670E-04
  weight for this iteration     100.00

[...]

 Broyden mixing:
  rms(total) = 0.14828E-04    rms(broyden)= 0.11965E-04
  rms(prec ) = 0.13059E-04
  weight for this iteration     100.00
  WARNING: grid for Broyden might be to small

[...]

 Broyden mixing:
  rms(total) = 0.14776E-04    rms(broyden)= 0.11902E-04
  rms(prec ) = 0.12592E-04
  weight for this iteration     100.00
  WARNING: grid for Broyden might be to small

 eigenvalues of (default mixing * dielectric matrix)
  average eigenvalue GAMMA=   1.5473
  3.4846  2.8984  2.5485  1.9872  1.9872  1.3045  1.3045  1.1557  1.1557  0.9342
  0.9342  0.9438  0.9438  0.0799

[...]

--------------------------------------- Iteration      1(  20)  ---------------------------------------

 eigenvalue-minimisations  : 13544
 total energy-change (2. order) : 0.1273293E-10  (-0.1742868E-09)
 number of electron     176.0000000 magnetization
 augmentation part       -2.3740570 magnetization

 Free energy of the ion-electron system (eV)
  alpha Z        PSCENC =       446.84264249
  Ewald energy   TEWEN  =     -9216.00586227
  -Hartree energ DENC   =     -3671.80189378
  -exchange      EXHF   =         0.00000000
  -V(xc)+E(xc)   XCENC  =       481.37304283
  PAW double counting   =     11510.98250527   -12047.11379701
  entropy T*S    EENTRO =        -0.00000000
  eigenvalues    EBANDS =     -1509.91087299
  atomic energy  EATOM  =     13290.57232999
  Solvation  Ediel_sol  =         0.00000000
  free energy    TOTEN  =      -715.06190546 eV

  energy without entropy =     -715.06190546  energy(sigma->0) =     -715.06190546

 average (electrostatic) potential at core
  the test charge radii are     1.1312  1.1541  1.0178
  (the norm of the test charge is              1.0000)
       1 -55.3186       2 -55.3184       3 -55.3186       4 -55.3184       5-101.7173
       6-101.7173       7-101.7173       8-101.7173       9 -68.9737      10 -68.9737
      11 -68.9737      12 -68.9737      13 -69.0007      14 -69.0007      15 -69.0007
      16 -69.0007      17 -69.0007      18 -69.0007      19 -69.0007      20 -69.0007

 E-fermi :   0.4964     XC(G=0):  -8.0559     alpha+bet : -7.0102

 k-point     1 :       0.0000    0.0000    0.0000
  band No.  band energies     occupation
      1     -20.8363      2.00000
      2     -20.8348      2.00000
      3     -20.8325      2.00000
      4     -20.8315      2.00000
      5     -16.5179      2.00000
      6     -16.5178      2.00000
      7     -16.5073      2.00000
      8     -16.4782      2.00000
      9     -16.4668      2.00000
     10     -16.4329      2.00000
     11     -16.4272      2.00000
     12     -16.4272      2.00000
     13     -16.3759      2.00000
     14     -16.3753      2.00000
     15     -16.3751      2.00000
     16     -16.3745      2.00000
     17     -16.3682      2.00000
     18     -16.3677      2.00000
     19     -16.3672      2.00000
     20     -16.3666      2.00000
     21     -16.3562      2.00000
     22     -16.3561      2.00000
     23     -16.3546      2.00000
     24     -16.3545      2.00000
     25     -14.3344      2.00000
     26     -14.1949      2.00000
     27     -14.0401      2.00000
     28     -14.0330      2.00000
     29     -14.0086      2.00000
     30     -13.9986      2.00000
     31     -13.9703      2.00000
     32     -13.9685      2.00000
     33     -13.9290      2.00000
     34     -13.7576      2.00000
     35     -13.7554      2.00000
     36     -13.7544      2.00000
     37      -8.1685      2.00000
     38      -7.7415      2.00000
     39      -7.2750      2.00000
     40      -7.2618      2.00000
     41      -7.2582      2.00000
     42      -7.2394      2.00000
     43      -7.2342      2.00000
     44      -7.2242      2.00000
     45      -7.2174      2.00000
     46      -7.2162      2.00000
     47      -7.2103      2.00000
     48      -7.2095      2.00000
     49      -7.1921      2.00000
     50      -7.1844      2.00000
     51      -7.1136      2.00000
     52      -6.5954      2.00000
     53      -3.3157      2.00000
     54      -3.2748      2.00000
     55      -3.2531      2.00000
     56      -3.1835      2.00000
     57      -3.1591      2.00000
     58      -2.9512      2.00000
     59      -2.1767      2.00000
     60      -1.9526      2.00000
[...]
     98       5.8762      0.00000
     99       5.8866      0.00000
    100       5.8899      0.00000
    101       5.9807      0.00000
    102       6.2711      0.00000
    103       6.2786      0.00000
    104       6.3001      0.00000
    105       6.3713      0.00000
    106       6.4061      0.00000
    107       6.4686      0.00000
    108       6.6929      0.00000
    109       6.8710      0.00000
    110       6.8795      0.00000
    111       6.9771      0.00000
    112       7.0598      0.00000

[...]

 k-point   100 :       0.5000    0.5000    0.5000
  band No.  band energies     occupation
      1     -20.8337      2.00000
      2     -20.8337      2.00000
      3     -20.8336      2.00000
      4     -20.8336      2.00000
      5     -16.4989      2.00000
      6     -16.4989      2.00000
      7     -16.4989      2.00000
      8     -16.4989      2.00000
      9     -16.4462      2.00000
     10     -16.4462      2.00000
     11     -16.4462      2.00000
     12     -16.4462      2.00000
     13     -16.3753      2.00000
     14     -16.3753      2.00000
     15     -16.3753      2.00000
     16     -16.3753      2.00000
     17     -16.3674      2.00000
     18     -16.3674      2.00000
     19     -16.3674      2.00000
     20     -16.3674      2.00000
     21     -16.3553      2.00000
     22     -16.3553      2.00000
     23     -16.3553      2.00000
     24     -16.3553      2.00000
     25     -14.0960      2.00000
     26     -14.0960      2.00000
     27     -14.0960      2.00000
     28     -14.0960      2.00000
     29     -14.0403      2.00000
     30     -14.0403      2.00000
     31     -14.0403      2.00000
     32     -14.0403      2.00000
     33     -13.8114      2.00000
     34     -13.8114      2.00000
     35     -13.8114      2.00000
     36     -13.8114      2.00000
     37      -7.4771      2.00000
     38      -7.4771      2.00000
     39      -7.4771      2.00000
     40      -7.4771      2.00000
     41      -7.2280      2.00000
     42      -7.2280      2.00000
     43      -7.2280      2.00000
     44      -7.2280      2.00000
     45      -7.2016      2.00000
     46      -7.2016      2.00000
     47      -7.2016      2.00000
     48      -7.2016      2.00000
     49      -7.1842      2.00000
     50      -7.1842      2.00000
     51      -7.1842      2.00000
     52      -7.1842      2.00000
     53      -3.1148      2.00000
     54      -3.1148      2.00000
     55      -3.1148      2.00000
     56      -3.1148      2.00000
     57      -2.4086      2.00000
     58      -2.4086      2.00000
     59      -2.4086      2.00000
     60      -2.4086      2.00000
[...]
     98       5.7364      0.00000
     99       5.7364      0.00000
    100       5.7364      0.00000
    101       6.5773      0.00000
    102       6.5773      0.00000
    103       6.5773      0.00000
    104       6.5773      0.00000
    105       6.6667      0.00000
    106       6.6667      0.00000
    107       6.6667      0.00000
    108       6.6667      0.00000
    109       7.0415      0.00000
    110       7.0415      0.00000
    111       7.0415      0.00000
    112       7.0415      0.00000

 soft charge-density along one line, spin component           1
         0         1         2         3         4         5         6         7         8         9
 total charge-density along one line

------------------------ aborting loop because EDIFF is reached ----------------------------------------

 total charge

# of ion       s       p       d       tot
    1        1.786   4.712   0.017   6.516
    2        1.786   4.712   0.017   6.516
    3        1.786   4.712   0.017   6.516
    4        1.786   4.712   0.017   6.516
    5        1.552   0.418   9.840  11.809
    6        1.552   0.417   9.840  11.809
    7        1.552   0.417   9.840  11.809
    8        1.552   0.418   9.840  11.809
    9        1.615   3.285   0.005   4.905
   10        1.615   3.286   0.005   4.906
   11        1.615   3.286   0.005   4.906
   12        1.615   3.285   0.005   4.905
   13        1.617   3.277   0.007   4.901
   14        1.615   3.301   0.006   4.922
   15        1.615   3.301   0.006   4.922
   16        1.617   3.277   0.007   4.901
   17        1.617   3.277   0.007   4.901
   18        1.615   3.301   0.006   4.922
   19        1.617   3.277   0.007   4.901
   20        1.615   3.301   0.006   4.922
tot         32.738  59.974  39.500 132.212

  FORCE on cell =-STRESS in cart. coord.  units (eV):
  Direction    XX          YY          ZZ          XY          YZ          ZX
  Alpha Z   446.84264   446.84264   446.84264
  Ewald   -2985.42441 -3116.86197 -3113.74559     0.00000    -0.00000     0.00000
  Hartree  1288.86012  1173.93406  1209.00749     0.00000    -0.00000    -0.00000
  E(xc)    -738.75241  -738.98412  -738.82227    -0.00040    -0.00028    -0.03036
  Local   -1569.05795 -1321.26856 -1362.67218     0.00000     0.00000     0.00000
  n-local   899.37745   896.40580   898.49641     0.02092     0.01962    -0.00673
  augment   406.34778   405.81723   405.72782     0.00000     0.00000     0.00000
  Kinetic  2251.81850  2250.08943  2255.18250    -0.01549    -0.01886    -1.62044
  Fock        0.00000     0.00000     0.00000     0.00000     0.00000     0.00000
  Total       0.01173    -4.02549     0.01682     0.00000     0.00000     0.00000
  in kB       0.02327    -7.98743     0.03337     0.00000     0.00000     0.00000

 VOLUME and BASIS-vectors are now :
  energy-cutoff  :      600.00
  volume of cell :      807.46
      direct lattice vectors                 reciprocal lattice vectors
     8.401481509  0.000000000  0.000000000     0.119026626  0.000000000  0.000000000
     0.000000000 12.116722018  0.000000000     0.000000000  0.082530572  0.000000000
     0.000000000  0.000000000  7.931980732     0.000000000  0.000000000  0.126071915

  length of vectors
     8.401481509 12.116722018  7.931980732     0.119026626  0.082530572  0.126071915

 FORCES acting on ions
    electron-ion (+dipol)            ewald-force                    non-local-force                 convergence-correction
   0.241E+02 -.116E-13 -.140E+02   -.240E+02 0.355E-14 0.141E+02   -.834E-01 0.000E+00 -.732E-01   0.167E-04 0.675E-13 -.264E-04
   -.241E+02 -.479E-12 -.140E+02   0.240E+02 -.107E-13 0.141E+02   0.834E-01 0.000E+00 -.732E-01   -.167E-04 -.703E-13 -.264E-04
   0.241E+02 0.423E-11 0.140E+02   -.240E+02 -.711E-14 -.141E+02   -.834E-01 0.000E+00 0.732E-01   0.167E-04 0.949E-13 0.264E-04
   -.241E+02 -.201E-11 0.140E+02   0.240E+02 0.142E-13 -.141E+02   0.834E-01 0.000E+00 0.732E-01   -.167E-04 -.412E-13 0.264E-04
   -.941E-11 -.256E-11 -.216E-10   -.161E-11 0.473E-12 0.114E-12   0.000E+00 0.000E+00 0.299E-25   0.652E-13 -.443E-13 -.639E-14
   0.258E-11 0.709E-11 -.108E-10   0.353E-11 -.139E-11 0.568E-13   0.000E+00 0.000E+00 0.108E-23   0.127E-12 0.355E-13 -.838E-13
   0.476E-11 -.282E-11 -.155E-10   0.351E-11 0.131E-11 0.426E-13   0.000E+00 0.000E+00 0.316E-24   0.110E-12 -.337E-12 -.666E-13
   -.944E-11 0.452E-11 -.216E-10   -.163E-11 -.512E-12 0.853E-13   0.000E+00 0.000E+00 -.287E-24   0.653E-13 -.281E-12 -.299E-13
   0.120E+02 -.219E-12 0.283E+02   -.121E+02 0.142E-13 -.284E+02   0.124E+00 0.000E+00 0.126E+00   0.969E-05 -.856E-14 0.237E-04
   -.120E+02 -.236E-11 0.283E+02   0.121E+02 0.142E-13 -.284E+02   -.124E+00 -.678E-20 0.126E+00   -.969E-05 0.134E-12 0.237E-04
   0.120E+02 -.211E-12 -.283E+02   -.121E+02 0.284E-13 0.284E+02   0.124E+00 0.678E-20 -.126E+00   0.969E-05 -.628E-13 -.237E-04
   -.120E+02 0.178E-11 -.283E+02   0.121E+02 -.142E-13 0.284E+02   -.124E+00 0.000E+00 -.126E+00   -.969E-05 0.784E-13 -.237E-04
   -.231E+02 0.150E+02 0.285E+02   0.234E+02 -.152E+02 -.288E+02   -.226E+00 0.144E+00 0.274E+00   0.583E-05 -.106E-04 -.287E-05
   0.231E+02 -.150E+02 0.285E+02   -.234E+02 0.152E+02 -.288E+02   0.226E+00 -.144E+00 0.274E+00   -.583E-05 0.106E-04 -.287E-05
   -.231E+02 -.150E+02 -.285E+02   0.234E+02 0.152E+02 0.288E+02   -.226E+00 -.144E+00 -.274E+00   0.583E-05 0.106E-04 0.287E-05
   0.231E+02 0.150E+02 -.285E+02   -.234E+02 -.152E+02 0.288E+02   0.226E+00 0.144E+00 -.274E+00   -.583E-05 -.106E-04 0.287E-05
   -.231E+02 -.150E+02 0.285E+02   0.234E+02 0.152E+02 -.288E+02   -.226E+00 -.144E+00 0.274E+00   0.583E-05 0.106E-04 -.287E-05
   0.231E+02 0.150E+02 0.285E+02   -.234E+02 -.152E+02 -.288E+02   0.226E+00 0.144E+00 0.274E+00   -.583E-05 -.106E-04 -.287E-05
   0.231E+02 -.150E+02 -.285E+02   -.234E+02 0.152E+02 0.288E+02   0.226E+00 -.144E+00 -.274E+00   -.583E-05 0.106E-04 0.287E-05
   -.231E+02 0.150E+02 -.285E+02   0.234E+02 -.152E+02 0.288E+02   -.226E+00 0.144E+00 -.274E+00   0.583E-05 -.106E-04 0.287E-05
   -.290E-10 0.388E-11 -.218E-09   0.426E-13 -.213E-13 0.355E-13   -.555E-16 0.000E+00 0.000E+00   0.395E-12 -.679E-12 -.221E-12

 POSITION                                       TOTAL-FORCE (eV/Angst)
      0.52765      3.02918      3.80415        -0.000466      0.000000     -0.000438
      3.67309      9.08754      7.77014         0.000466      0.000000     -0.000438
      4.72839      3.02918      0.16184        -0.000466     -0.000000      0.000438
      7.87383      9.08754      4.12783         0.000466      0.000000      0.000438
      0.00000      0.00000      0.00000         0.000000      0.000000     -0.000000
      4.20074      0.00000      3.96599         0.000000      0.000000     -0.000000
      4.20074      6.05836      3.96599         0.000000      0.000000     -0.000000
      0.00000      6.05836      0.00000         0.000000      0.000000     -0.000000
      4.21734      9.08754      3.59633         0.000283     -0.000000      0.000599
      8.38488      3.02918      7.56232        -0.000283      0.000000      0.000599
      0.01660      9.08754      0.36966         0.000283     -0.000000     -0.000599
      4.18414      3.02918      4.33565        -0.000283      0.000000     -0.000599
      2.58472      5.71947      1.47534        -0.000307      0.000509      0.000081
      1.61603      6.39725      5.44133         0.000307     -0.000509      0.000081
      6.78546      0.33889      2.49065        -0.000307     -0.000509     -0.000081
      5.81677     11.77783      6.45664         0.000307      0.000509     -0.000081
      2.58472      0.33889      1.47534        -0.000307     -0.000509      0.000081
      1.61603     11.77783      5.44133         0.000307      0.000509      0.000081
      5.81677      6.39725      6.45664         0.000307     -0.000509     -0.000081
      6.78546      5.71947      2.49065        -0.000307      0.000509     -0.000081
    total drift:                               -0.000000      0.000000     -0.000000

  FREE ENERGIE OF THE ION-ELECTRON SYSTEM (eV)
  free  energy   TOTEN  =      -715.06190546 eV

  energy  without entropy=     -715.06190546  energy(sigma->0) =     -715.06190546

 stress matrix after NEB project (eV)
      0.01173      0.00000      0.00000
      0.00000     -4.02549      0.00000
      0.00000      0.00000      0.01682
  FORCES: max atom, RMS     0.000662    0.000560
  FORCE total and by dimension    0.002504    0.000599
  Stress total and by dimension    4.025544    4.025492

 reached required accuracy - stopping structural energy minimisation

 total charge

# of ion       s       p       d       tot
    1        1.786   4.712   0.017   6.516
    2        1.786   4.712   0.017   6.516
    3        1.786   4.712   0.017   6.516
    4        1.786   4.712   0.017   6.516
    5        1.552   0.418   9.840  11.809
    6        1.552   0.417   9.840  11.809
    7        1.552   0.417   9.840  11.809
    8        1.552   0.418   9.840  11.809
    9        1.615   3.285   0.005   4.905
   10        1.615   3.286   0.005   4.906
   11        1.615   3.286   0.005   4.906
   12        1.615   3.285   0.005   4.905
   13        1.617   3.277   0.007   4.901
   14        1.615   3.301   0.006   4.922
   15        1.615   3.301   0.006   4.922
   16        1.617   3.277   0.007   4.901
   17        1.617   3.277   0.007   4.901
   18        1.615   3.301   0.006   4.922
   19        1.617   3.277   0.007   4.901
   20        1.615   3.301   0.006   4.922
tot         32.738  59.974  39.500 132.212