 vasp.5.4.4.18Apr17-6-g9f103f2a35 (build Jun 22 2020 09:27:21) complex

 INCAR:
 POTCAR:    PAW_PBE Cs_sv 08Apr2002
 POTCAR:    PAW_PBE Pb_d 06Sep2000
 POTCAR:    PAW_PBE Br 06Sep2000
 POTCAR:    PAW_PBE Cs_sv 08Apr2002
   VRHFIN =Cs: 5s5p6s

   TITEL  = PAW_PBE Cs_sv 08Apr2002
   POMASS =  132.900; ZVAL   =    9.000    mass and valenz
   ENMAX  =  220.318; ENMIN  =  165.238 eV

   TITEL  = PAW_PBE Pb_d 06Sep2000
   POMASS =  207.200; ZVAL   =   14.000    mass and valenz
   ENMAX  =  237.835; ENMIN  =  178.376 eV

   TITEL  = PAW_PBE Br 06Sep2000
   POMASS =   79.904; ZVAL   =    7.000    mass and valenz
   ENMAX  =  216.285; ENMIN  =  162.214 eV

 Optimization of the real space projectors (new method)

 maximal supplied QI-value         = 15.12
 optimisation between [QCUT,QGAM] = [  8.77, 17.69] = [ 21.53, 87.61] Ry
 Optimized for a Real-space Cutoff    1.85 Angstroem

   l    n(q)    QCUT    max X(q) W(low)/X(q) W(high)/X(q)  e(spline)
   0     10     8.768    25.322    0.81E-04    0.51E-04    0.48E-06
   0     10     8.768    99.187    0.78E-04    0.50E-04    0.47E-06
   1      9     8.768    11.761    0.21E-03    0.20E-03    0.37E-06
   1      9     8.768     8.275    0.24E-03    0.22E-03    0.41E-06
   2      9     8.768     3.829    0.23E-04    0.15E-03    0.18E-06
 Optimization of the real space projectors (new method)

[...]

   l    n(q)    QCUT    max X(q) W(low)/X(q) W(high)/X(q)  e(spline)
   2      7     8.768     3.846    0.48E-04    0.11E-03    0.11E-06
   2      7     8.768     8.593    0.20E-03    0.22E-04    0.24E-06
   0      8     8.768    20.082    0.68E-04    0.88E-04    0.41E-07
   0      8     8.768     8.597    0.89E-04    0.13E-03    0.59E-07
   1      8     8.768    33.223    0.15E-03    0.53E-04    0.87E-07
   1      8     8.768    15.899    0.14E-03    0.44E-04    0.78E-07
 Optimization of the real space projectors (new method)

 maximal supplied QI-value         = 17.95
 optimisation between [QCUT,QGAM] = [  8.80, 17.59] = [ 21.67, 86.68] Ry
 Optimized for a Real-space Cutoff    1.59 Angstroem

   l    n(q)    QCUT    max X(q) W(low)/X(q) W(high)/X(q)  e(spline)
   0      8     8.797   175.082    0.82E-04    0.14E-03    0.89E-07
   0      8     8.797   174.004    0.79E-04    0.14E-03    0.86E-07
   1      8     8.797    54.315    0.16E-03    0.14E-04    0.30E-06
   1      8     8.797    42.441    0.16E-03    0.14E-04    0.30E-06
   2      7     8.797     3.596    0.92E-04    0.15E-03    0.85E-07
  PAW_PBE Cs_sv 08Apr2002               :
  PAW_PBE Pb_d 06Sep2000                :
  PAW_PBE Br 06Sep2000                  :

 POSCAR: Cs8 Pb8 Br24
  positions in direct lattice

 METAGGA = SCAN     LMAXTAU =  6    LMIXTAU =  F

 VTST: version 3.2, (02/03/18)

 CHAIN: initializing optimizer

 OPT: Using VASP Conjugate-Gradient optimizer
 CHAIN: Read ICHAIN            0

 POSCAR: Cs8 Pb8 Br24
  positions in direct lattice

 ion  position               nearest neighbor table
   1  0.250  0.250  0.250-
   2  0.250  0.250  0.750-
   3  0.250  0.750  0.250-
   4  0.250  0.750  0.750-
   5  0.750  0.250  0.250-
   6  0.750  0.250  0.750-
   7  0.750  0.750  0.250-
   8  0.750  0.750  0.750-
   9  0.000  0.000  0.000-  25 2.93  26 2.93  17 3.04  19 3.04  33 3.04  37 3.04
  10  0.000  0.000  0.500-  25 2.93  26 2.93  18 3.04  20 3.04  34 3.04  38 3.04
  11  0.000  0.500  0.000-  27 2.93  28 2.93  17 3.04  19 3.04  35 3.04  39 3.04
  12  0.000  0.500  0.500-  27 2.93  28 2.93  18 3.04  20 3.04  36 3.04  40 3.04
  13  0.500  0.000  0.000-  29 2.93  30 2.93  21 3.04  23 3.04  33 3.04  37 3.04
  14  0.500  0.000  0.500-  29 2.93  30 2.93  22 3.04  24 3.04  34 3.04  38 3.04
  15  0.500  0.500  0.000-  31 2.93  32 2.93  21 3.04  23 3.04  35 3.04  39 3.04
  16  0.500  0.500  0.500-  31 2.93  32 2.93  22 3.04  24 3.04  36 3.04  40 3.04
  17  0.932  0.250  0.000-   9 3.04  11 3.04
  18  0.068  0.250  0.500-  10 3.04  12 3.04
  19  0.068  0.750  0.000-   9 3.04  11 3.04
  20  0.932  0.750  0.500-  10 3.04  12 3.04
  21  0.568  0.250  0.000-  13 3.04  15 3.04
  22  0.432  0.250  0.500-  14 3.04  16 3.04
  23  0.432  0.750  0.000-  13 3.04  15 3.04
  24  0.568  0.750  0.500-  14 3.04  16 3.04
  25  0.000  0.000  0.250-   9 2.93  10 2.93
  26  0.000  0.000  0.750-   9 2.93  10 2.93
  27  0.000  0.500  0.250-  11 2.93  12 2.93
  28  0.000  0.500  0.750-  11 2.93  12 2.93
  29  0.500  0.000  0.250-  13 2.93  14 2.93
  30  0.500  0.000  0.750-  13 2.93  14 2.93
  31  0.500  0.500  0.250-  15 2.93  16 2.93
  32  0.500  0.500  0.750-  15 2.93  16 2.93
  33  0.250  0.068  0.000-   9 3.04  13 3.04
  34  0.250  0.932  0.500-  10 3.04  14 3.04
  35  0.250  0.432  0.000-  11 3.04  15 3.04
  36  0.250  0.568  0.500-  12 3.04  16 3.04
  37  0.750  0.932  0.000-   9 3.04  13 3.04
  38  0.750  0.068  0.500-  10 3.04  14 3.04
  39  0.750  0.568  0.000-  11 3.04  15 3.04
  40  0.750  0.432  0.500-  12 3.04  16 3.04

  LATTYP: Found a simple cubic cell.
 ALAT       =    11.7353520000

  Lattice vectors:

 A1 = (  11.7353520000,   0.0000000000,   0.0000000000)
 A2 = (   0.0000000000,  11.7353520000,   0.0000000000)
 A3 = (   0.0000000000,   0.0000000000,  11.7353520000)

Analysis of symmetry for initial positions (statically):
 Subroutine PRICEL returns following result:

  LATTYP: Found a face centered cubic cell.
 ALAT       =    11.7353520000

[...]

   4 primitive cells build up your supercell.

 Routine SETGRP: Setting up the symmetry group for a
 simple cubic supercell.

 Subroutine GETGRP returns: Found 16 space group operations
 (whereof  8 operations were pure point group operations)
 out of a pool of 48 trial point group operations.

The static configuration has the point symmetry C_4h.
 The point group associated with its full space group is D_4h.

Analysis of symmetry for dynamics (positions and initial velocities):
 Subroutine PRICEL returns following result:

  LATTYP: Found a face centered cubic cell.
 ALAT       =    11.7353520000

  Lattice vectors:

 A1 = (   5.8676760000,   5.8676760000,   0.0000000000)
 A2 = (   5.8676760000,  -0.0000000000,  -5.8676760000)
 A3 = (   0.0000000000,   5.8676760000,  -5.8676760000)

   4 primitive cells build up your supercell.

 Routine SETGRP: Setting up the symmetry group for a
 simple cubic supercell.

 Subroutine GETGRP returns: Found 16 space group operations
 (whereof  8 operations were pure point group operations)
 out of a pool of 48 trial point group operations.

The dynamic configuration has the point symmetry C_4h.
 The point group associated with its full space group is D_4h.

 Subroutine INISYM returns: Found 16 space group operations
 (whereof  8 operations are pure point group operations),
 and found     4 'primitive' translations

 KPOINTS: 1x1x1

Automatic generation of k-mesh.
Space group operators:
 irot       det(A)        alpha          n_x          n_y          n_z        tau_x        tau_y        tau_z
    1     1.000000     0.000000     1.000000     0.000000     0.000000     0.000000     0.000000    -0.000000
    2    -1.000000     0.000000     1.000000     0.000000     0.000000     0.000000     0.000000    -0.000000
    3     1.000000    90.000000     0.000000     0.000000    -1.000000     0.000000     0.000000    -0.000000
    4    -1.000000    90.000000     0.000000     0.000000    -1.000000     0.000000     0.000000    -0.000000
    5     1.000000   180.000000     0.000000     0.000000     1.000000     0.000000     0.000000    -0.000000
    6    -1.000000   180.000000     0.000000     0.000000     1.000000     0.000000     0.000000    -0.000000
    7     1.000000    90.000000     0.000000     0.000000     1.000000     0.000000     0.000000    -0.000000
    8    -1.000000    90.000000     0.000000     0.000000     1.000000     0.000000     0.000000    -0.000000
    9     1.000000   180.000000     1.000000     0.000000     0.000000     0.500000     0.500000    -0.500000
   10    -1.000000   180.000000     1.000000     0.000000     0.000000     0.500000     0.500000    -0.500000
   11     1.000000   180.000000     0.707107     0.707107     0.000000     0.500000     0.500000    -0.500000
   12    -1.000000   180.000000     0.707107     0.707107     0.000000     0.500000     0.500000    -0.500000
   13     1.000000   180.000000     0.000000     1.000000     0.000000     0.500000     0.500000    -0.500000
   14    -1.000000   180.000000     0.000000     1.000000     0.000000     0.500000     0.500000    -0.500000
   15     1.000000   180.000000     0.707107    -0.707107     0.000000     0.500000     0.500000    -0.500000
   16    -1.000000   180.000000     0.707107    -0.707107     0.000000     0.500000     0.500000    -0.500000

 Subroutine IBZKPT returns following result:

 Found      6 irreducible k-points:

 Following reciprocal coordinates:
            Coordinates               Weight
  0.000000  0.000000  0.000000      1.000000
  0.500000  0.000000  0.000000      2.000000
  0.500000  0.500000  0.000000      1.000000
  0.000000  0.000000  0.500000      1.000000
  0.500000  0.000000  0.500000      2.000000
  0.500000  0.500000  0.500000      1.000000

 Following cartesian coordinates:
            Coordinates               Weight
  0.000000  0.000000  0.000000      1.000000
  0.042606  0.000000  0.000000      2.000000
  0.042606  0.042606  0.000000      1.000000
  0.000000  0.000000  0.042606      1.000000
  0.042606  0.000000  0.042606      2.000000
  0.042606  0.042606  0.042606      1.000000

 SYSTEM =  CsPbBr3 cubic bulk
 POSCAR =  Cs8 Pb8 Br24

 Startparameter for this run:
   NWRITE =      2    write-flag & timer
   PREC   = accura    normal or accurate (medium, high low for compatibility)
   ISTART =      0    job   : 0-new  1-cont  2-samecut
   ICHARG =      2    charge: 1-file 2-atom 10-const
   ISPIN  =      1    spin polarized calculation?
   LNONCOLLINEAR =      F non collinear calculations
   LSORBIT =      F    spin-orbit coupling
   INIWAV =      1    electr: 0-lowe 1-rand  2-diag
   LASPH  =      T    aspherical Exc in radial PAW
   METAGGA=      F    non-selfconsistent MetaGGA calc.

 Electronic Relaxation 1
   ENCUT  =  300.0 eV  22.05 Ry    4.70 a.u.  16.57 16.57 16.57*2*pi/ulx,y,z
   ENINI  =  300.0     initial cutoff
   ENAUG  =  503.9 eV  augmentation charge cutoff
   NELM   =    200;   NELMIN=  2; NELMDL= -5     # of ELM steps
   EDIFF  = 0.1E-05   stopping-criterion for ELM
   LREAL  =      T    real-space projection
   NLSPLINE    = F    spline interpolate recip. space projectors
   LCOMPAT=      F    compatible to vasp.4.4
   GGA_COMPAT  = T    GGA compatible to vasp.4.4-vasp.4.6
   LMAXPAW     = -100 max onsite density
   LMAXMIX     =    2 max onsite mixed and CHGCAR
   VOSKOWN=      0    Vosko Wilk Nusair interpolation
   ROPT   =   -0.00025  -0.00025  -0.00025
 Ionic relaxation
   EDIFFG = -.1E-01   stopping-criterion for IOM
   NSW    =      0    number of steps for IOM
   NBLOCK =      1;   KBLOCK =      1    inner block; outer block
   IBRION =     -1    ionic relax: 0-MD 1-quasi-New 2-CG
   NFREE  =      1    steps in history (QN), initial steepest desc. (CG)
   ISIF   =      3    stress and relaxation
   IWAVPR =     10    prediction:  0-non 1-charg 2-wave 3-comb
[...]
     23     -16.4201      2.00000
     24     -16.4201      2.00000
     25     -16.3247      2.00000
     26     -16.3247      2.00000
     27     -16.3247      2.00000
     28     -16.3247      2.00000
     29     -16.3247      2.00000
     30     -16.3247      2.00000
     31     -16.3247      2.00000
     32     -16.3247      2.00000
     33     -16.3187      2.00000
     34     -16.3187      2.00000
     35     -16.3187      2.00000
     36     -16.3187      2.00000
     37     -16.3187      2.00000
     38     -16.3187      2.00000
     39     -16.3187      2.00000
     40     -16.3187      2.00000
     41     -16.3187      2.00000
     42     -16.3187      2.00000
     43     -16.3187      2.00000
     44     -16.3187      2.00000
     45     -16.3187      2.00000
     46     -16.3187      2.00000
     47     -16.3187      2.00000
     48     -16.3187      2.00000
     49     -14.1996      2.00000
     50     -14.1996      2.00000
     51     -14.1996      2.00000
     52     -14.1996      2.00000
     53     -14.1996      2.00000
     54     -14.1996      2.00000
     55     -14.1996      2.00000
     56     -14.1996      2.00000
     57     -13.8869      2.00000
     58     -13.8869      2.00000
     59     -13.8869      2.00000
     60     -13.8869      2.00000
[...]
    202       6.1333      0.00000
    203       6.1333      0.00000
    204       6.1333      0.00000
    205       6.1333      0.00000
    206       6.1333      0.00000
    207       6.1333      0.00000
    208       6.1333      0.00000
    209       6.4934      0.00000
    210       6.4934      0.00000
    211       6.4934      0.00000
    212       6.4934      0.00000
    213       6.4934      0.00000
    214       6.4934      0.00000
    215       6.4934      0.00000
    216       6.4935      0.00000

 soft charge-density along one line, spin component           1
         0         1         2         3         4         5         6         7         8         9
 total charge-density along one line

------------------------ aborting loop because EDIFF is reached ----------------------------------------

 total charge

# of ion       s       p       d       tot
    1        1.785   4.719   0.018   6.522
    2        1.785   4.719   0.018   6.522
    3        1.785   4.719   0.018   6.522
    4        1.785   4.719   0.018   6.522
    5        1.785   4.719   0.018   6.522
    6        1.785   4.719   0.018   6.522
    7        1.785   4.719   0.018   6.522
    8        1.785   4.719   0.018   6.522
    9        1.555   0.416   9.834  11.805
   10        1.555   0.416   9.834  11.805
   11        1.555   0.416   9.834  11.805
   12        1.555   0.416   9.834  11.805
   13        1.555   0.416   9.834  11.805
   14        1.555   0.416   9.834  11.805
   15        1.555   0.416   9.834  11.805
   16        1.555   0.416   9.834  11.805
   17        1.613   3.299   0.005   4.917
   18        1.613   3.299   0.005   4.917
   19        1.613   3.299   0.005   4.917
   20        1.613   3.299   0.005   4.917
   21        1.613   3.299   0.005   4.917
   22        1.613   3.299   0.005   4.917
   23        1.613   3.299   0.005   4.917
   24        1.613   3.299   0.005   4.917
   25        1.615   3.287   0.007   4.909
   26        1.615   3.287   0.007   4.909
   27        1.615   3.287   0.007   4.909
   28        1.615   3.287   0.007   4.909
   29        1.615   3.287   0.007   4.909
   30        1.615   3.287   0.007   4.909
   31        1.615   3.287   0.007   4.909
   32        1.615   3.287   0.007   4.909
   33        1.615   3.270   0.006   4.890
   34        1.615   3.270   0.006   4.890
   35        1.615   3.270   0.006   4.890
   36        1.615   3.270   0.006   4.890
   37        1.615   3.270   0.006   4.890
   38        1.615   3.270   0.006   4.890
   39        1.615   3.270   0.006   4.890
   40        1.615   3.270   0.006   4.890
tot         65.460 119.921  78.961 264.342

  FORCE on cell =-STRESS in cart. coord.  units (eV):
  Direction    XX          YY          ZZ          XY          YZ          ZX
  Alpha Z   892.99476   892.99476   892.99476
  Ewald   -6361.02255 -6361.02255 -5711.17881    -0.00000     0.00000    -0.00000
  Hartree  2371.94739  2371.94739  2602.76348    -0.00000    -0.00000    -0.00000
  E(xc)   -1478.41613 -1478.25973 -1476.74979     0.00000    -0.00000    -0.00000
  Local   -2541.57820 -2541.57820 -3420.01486    -0.00000    -0.00000    -0.00000
  n-local  1795.86617  1796.08811  1806.64422    -0.00001     0.00002    -0.00000
  augment   812.68990   812.68990   812.18827     0.00000    -0.00006    -0.00006
  Kinetic  4495.12528  4503.42442  4505.31170     0.00001    -0.00004    -0.00000
  Fock        0.00000     0.00000     0.00000     0.00000     0.00000     0.00000
  Total      -8.05464    -8.05464    11.95896     0.00000     0.00000     0.00000
  in kB      -7.98488    -7.98488    11.85539     0.00000     0.00000     0.00000

 VOLUME and BASIS-vectors are now :
  energy-cutoff  :      300.00
  volume of cell :     1616.17
      direct lattice vectors                 reciprocal lattice vectors
    11.735352000  0.000000000  0.000000000     0.085212612  0.000000000  0.000000000
     0.000000000 11.735352000  0.000000000     0.000000000  0.085212612  0.000000000
     0.000000000  0.000000000 11.735352000     0.000000000  0.000000000  0.085212612

  length of vectors
    11.735352000 11.735352000 11.735352000     0.085212612  0.085212612  0.085212612

 FORCES acting on ions
    electron-ion (+dipol)            ewald-force                    non-local-force                 convergence-correction
   -.261E-10 0.131E-09 -.316E-10   0.200E-13 -.355E-14 0.000E+00   -.124E-23 0.000E+00 0.519E-19   0.306E-12 0.579E-13 0.216E-13
   -.287E-10 -.196E-11 0.131E-09   0.194E-13 -.977E-14 0.533E-14   0.414E-24 0.000E+00 -.234E-20   -.360E-13 0.203E-12 0.365E-13
   0.188E-10 0.148E-09 0.619E-11   0.372E-13 -.266E-14 0.888E-15   0.160E-23 0.000E+00 -.398E-20   -.156E-12 -.113E-13 0.853E-13
   -.131E-09 0.203E-09 0.238E-09   -.395E-14 -.711E-14 0.115E-13   -.414E-24 0.827E-24 -.102E-20   0.274E-13 -.150E-12 -.262E-13
   0.107E-09 0.135E-09 0.142E-09   0.143E-13 0.000E+00 -.711E-14   0.388E-24 0.000E+00 -.603E-20   -.274E-12 0.221E-12 0.213E-12
   0.110E-09 -.205E-10 0.203E-09   0.433E-13 0.711E-14 0.000E+00   -.414E-24 0.000E+00 -.283E-20   0.106E-12 0.258E-12 -.138E-12
   0.119E-09 -.312E-10 0.158E-10   0.185E-13 -.711E-14 -.355E-14   -.414E-24 0.827E-24 -.838E-21   0.225E-12 -.145E-12 0.110E-12
   0.597E-11 -.560E-10 0.311E-10   0.312E-13 -.178E-13 -.355E-14   0.414E-24 0.000E+00 0.179E-20   0.132E-13 -.177E-12 -.630E-13
   -.543E-14 -.338E-13 -.257E-13   0.338E-13 -.114E-12 0.340E-13   0.132E-22 0.199E-22 0.151E-23   0.301E-12 0.417E-13 -.119E-12
   -.214E-13 0.728E-14 0.116E-11   0.213E-13 -.533E-14 0.360E-13   0.000E+00 0.000E+00 -.254E-22   0.180E-12 0.104E-12 -.341E-12
   -.687E-14 0.117E-11 0.289E-13   0.409E-13 0.355E-14 0.325E-13   0.000E+00 0.000E+00 -.101E-22   0.198E-12 -.763E-13 -.183E-12
   0.121E-14 0.115E-11 0.111E-11   0.568E-13 -.853E-13 0.340E-13   0.132E-22 0.199E-22 0.171E-23   -.480E-13 -.143E-12 -.263E-12
   0.113E-11 -.100E-13 0.625E-11   0.453E-13 -.169E-13 0.307E-13   0.000E+00 0.000E+00 0.160E-23   -.284E-12 0.492E-12 0.194E-12
   0.116E-11 -.255E-13 -.766E-11   0.391E-13 -.101E-12 0.322E-13   -.132E-22 0.132E-22 0.138E-23   -.165E-12 0.430E-12 -.515E-12
   0.418E-11 -.379E-11 0.193E-11   0.213E-13 -.737E-13 0.287E-13   -.132E-22 0.132E-22 0.291E-22   -.183E-12 -.470E-12 -.109E-12
   0.117E-11 -.198E-11 -.132E-11   0.000E+00 0.000E+00 0.591E-13   0.000E+00 0.000E+00 -.126E-22   0.698E-13 -.446E-12 -.267E-12
   0.299E+02 0.428E-11 0.604E-08   -.303E+02 0.808E-13 0.334E-14   0.472E+00 0.000E+00 0.244E-24   -.347E-03 0.559E-14 -.164E-12
   -.299E+02 0.188E-12 -.602E-08   0.303E+02 0.675E-13 -.383E-14   -.472E+00 0.000E+00 0.181E-23   0.347E-03 0.203E-12 0.700E-13
   -.299E+02 0.434E-12 -.602E-08   0.303E+02 0.515E-13 -.470E-14   -.472E+00 0.000E+00 0.526E-23   0.347E-03 -.298E-13 0.201E-12
   0.299E+02 0.397E-11 0.604E-08   -.303E+02 0.995E-13 0.775E-14   0.472E+00 0.000E+00 0.292E-24   -.347E-03 -.291E-12 -.377E-12
   -.299E+02 -.418E-12 -.602E-08   0.303E+02 0.631E-13 -.115E-14   -.472E+00 0.000E+00 0.489E-23   0.347E-03 0.615E-13 0.184E-12
   0.299E+02 0.686E-12 0.602E-08   -.303E+02 0.604E-13 0.333E-14   0.472E+00 0.165E-23 -.270E-24   -.347E-03 0.107E-12 -.218E-12
   0.299E+02 0.208E-11 0.602E-08   -.303E+02 0.844E-13 -.110E-14   0.472E+00 0.000E+00 0.125E-24   -.347E-03 -.102E-12 0.375E-13
   -.299E+02 -.388E-12 -.602E-08   0.303E+02 0.924E-13 -.738E-14   -.472E+00 0.000E+00 0.209E-23   0.347E-03 -.199E-12 -.159E-12
   -.448E-13 0.251E-14 0.270E-13   -.711E-13 0.266E-14 -.284E-13   -.103E-23 -.827E-24 0.106E-23   0.107E-12 -.125E-12 0.944E-13
   0.584E-13 -.100E-13 0.969E-13   -.782E-13 0.444E-14 -.391E-13   0.165E-23 0.000E+00 -.110E-23   0.182E-12 0.210E-12 0.681E-13
   0.378E-13 0.113E-12 0.303E-13   -.639E-13 0.888E-15 -.391E-13   0.000E+00 0.827E-24 -.213E-23   -.105E-13 0.125E-12 0.226E-12
   -.509E-13 0.944E-13 0.221E-13   -.497E-13 0.888E-15 -.284E-13   -.827E-24 -.827E-24 0.297E-24   0.145E-12 -.214E-12 -.680E-13
   0.166E-12 0.216E-14 -.703E-11   -.560E-13 -.888E-14 -.391E-13   0.827E-24 0.827E-24 -.245E-23   -.493E-13 0.240E-12 -.439E-13
   0.375E-13 0.356E-14 0.201E-11   -.702E-13 -.799E-14 -.249E-13   0.000E+00 0.000E+00 -.113E-23   -.134E-12 0.201E-12 0.140E-12
   0.554E-13 -.218E-11 -.388E-11   -.462E-13 -.266E-14 -.249E-13   -.931E-24 -.827E-24 0.141E-23   0.670E-13 -.219E-12 0.136E-12
   0.155E-12 -.388E-12 -.328E-12   -.639E-13 0.266E-14 -.355E-13   0.165E-23 0.165E-23 -.161E-23   -.890E-13 -.186E-12 -.960E-14
   -.485E-14 -.299E+02 -.601E-08   0.417E-13 0.303E+02 -.483E-14   0.000E+00 -.472E+00 0.362E-24   0.120E-12 0.347E-03 0.876E-13
   0.990E-14 0.299E+02 0.601E-08   0.151E-13 -.303E+02 0.473E-14   0.165E-23 0.472E+00 0.404E-25   -.107E-12 -.347E-03 -.206E-12
   0.110E-13 0.299E+02 0.601E-08   -.347E-13 -.303E+02 -.381E-14   0.000E+00 0.472E+00 -.138E-22   0.407E-13 -.347E-03 -.933E-13
   -.183E-14 -.299E+02 -.602E-08   0.132E-13 0.303E+02 -.319E-14   0.000E+00 -.472E+00 -.280E-24   -.553E-13 0.347E-03 -.389E-13
   0.913E-13 0.299E+02 0.601E-08   0.368E-14 -.303E+02 -.399E-14   0.000E+00 0.472E+00 -.137E-22   -.802E-13 -.347E-03 0.157E-12
   0.801E-13 -.299E+02 -.601E-08   0.268E-13 0.303E+02 -.336E-14   0.000E+00 -.472E+00 0.270E-22   -.413E-14 0.347E-03 -.163E-12
   0.623E-13 -.299E+02 -.602E-08   0.702E-13 0.303E+02 -.391E-14   0.000E+00 -.472E+00 -.133E-22   -.637E-14 0.347E-03 0.198E-12
   0.860E-13 0.299E+02 0.602E-08   0.187E-13 -.303E+02 0.330E-15   0.165E-23 0.472E+00 0.431E-24   -.486E-13 -.347E-03 -.202E-12
   0.184E-09 0.517E-09 0.764E-09   0.110E-12 0.117E-12 0.962E-14   -.111E-15 -.111E-15 0.366E-19   0.264E-12 -.231E-13 -.150E-11

 POSITION                                       TOTAL-FORCE (eV/Angst)
      2.93384      2.93384      2.93384        -0.000000     -0.000000      0.000000
      2.93384      2.93384      8.80151         0.000000     -0.000000      0.000000
      2.93384      8.80151      2.93384         0.000000     -0.000000      0.000000
      2.93384      8.80151      8.80151         0.000000     -0.000000      0.000000
      8.80151      2.93384      2.93384        -0.000000     -0.000000      0.000000
      8.80151      2.93384      8.80151         0.000000     -0.000000      0.000000
      8.80151      8.80151      2.93384        -0.000000     -0.000000      0.000000
      8.80151      8.80151      8.80151         0.000000     -0.000000      0.000000
      0.00000      0.00000      0.00000         0.000000     -0.000000      0.000000
      0.00000      0.00000      5.86768         0.000000     -0.000000      0.000000
      0.00000      5.86768      0.00000        -0.000000     -0.000000      0.000000
      0.00000      5.86768      5.86768         0.000000     -0.000000      0.000000
      5.86768      0.00000      0.00000        -0.000000     -0.000000      0.000000
      5.86768      0.00000      5.86768         0.000000     -0.000000      0.000000
      5.86768      5.86768      0.00000        -0.000000     -0.000000      0.000000
      5.86768      5.86768      5.86768        -0.000000     -0.000000      0.000000
     10.94322      2.93384      0.00000         0.125298     -0.000000     -0.000000
      0.79214      2.93384      5.86768        -0.125298     -0.000000      0.000000
      0.79214      8.80151      0.00000        -0.125298     -0.000000      0.000000
     10.94322      8.80151      5.86768         0.125298     -0.000000     -0.000000
      6.65981      2.93384      0.00000        -0.125298     -0.000000      0.000000
      5.07554      2.93384      5.86768         0.125298     -0.000000     -0.000000
      5.07554      8.80151      0.00000         0.125298     -0.000000     -0.000000
      6.65981      8.80151      5.86768        -0.125298     -0.000000      0.000000
      0.00000      0.00000      2.93384         0.000000     -0.000000      0.000000
      0.00000      0.00000      8.80151        -0.000000     -0.000000      0.000000
      0.00000      5.86768      2.93384        -0.000000     -0.000000      0.000000
      0.00000      5.86768      8.80151         0.000000     -0.000000      0.000000
      5.86768      0.00000      2.93384        -0.000000     -0.000000      0.000000
      5.86768      0.00000      8.80151         0.000000     -0.000000      0.000000
      5.86768      5.86768      2.93384         0.000000     -0.000000      0.000000
      5.86768      5.86768      8.80151        -0.000000     -0.000000      0.000000
      2.93384      0.79214      0.00000        -0.000000     -0.125298      0.000000
      2.93384     10.94322      5.86768        -0.000000      0.125298     -0.000000
      2.93384      5.07554      0.00000         0.000000      0.125298     -0.000000
      2.93384      6.65981      5.86768        -0.000000     -0.125298      0.000000
      8.80151     10.94322      0.00000         0.000000      0.125298     -0.000000
      8.80151      0.79214      5.86768        -0.000000     -0.125298      0.000000
      8.80151      6.65981      0.00000        -0.000000     -0.125298      0.000000
      8.80151      5.07554      5.86768         0.000000      0.125298     -0.000000
    total drift:                                0.000000      0.000000      0.000000

  FREE ENERGIE OF THE ION-ELECTRON SYSTEM (eV)
  free  energy   TOTEN  =     -1429.30286676 eV

  energy  without entropy=    -1429.30286676  energy(sigma->0) =    -1429.30286676

 stress matrix after NEB project (eV)
     -8.05464      0.00000      0.00000
      0.00000     -8.05464      0.00000
      0.00000      0.00000     11.95896
  FORCES: max atom, RMS     0.125298    0.079245
  FORCE total and by dimension    0.501190    0.125298
  Stress total and by dimension   16.515791   11.958965

 total charge

# of ion       s       p       d       tot
    1        1.785   4.719   0.018   6.522
    2        1.785   4.719   0.018   6.522
    3        1.785   4.719   0.018   6.522
    4        1.785   4.719   0.018   6.522
    5        1.785   4.719   0.018   6.522
    6        1.785   4.719   0.018   6.522
    7        1.785   4.719   0.018   6.522
    8        1.785   4.719   0.018   6.522
    9        1.555   0.416   9.834  11.805
   10        1.555   0.416   9.834  11.805
   11        1.555   0.416   9.834  11.805
   12        1.555   0.416   9.834  11.805
   13        1.555   0.416   9.834  11.805
   14        1.555   0.416   9.834  11.805
   15        1.555   0.416   9.834  11.805
   16        1.555   0.416   9.834  11.805
   17        1.613   3.299   0.005   4.917
   18        1.613   3.299   0.005   4.917
   19        1.613   3.299   0.005   4.917
   20        1.613   3.299   0.005   4.917
   21        1.613   3.299   0.005   4.917
   22        1.613   3.299   0.005   4.917
   23        1.613   3.299   0.005   4.917
   24        1.613   3.299   0.005   4.917
   25        1.615   3.287   0.007   4.909
   26        1.615   3.287   0.007   4.909
   27        1.615   3.287   0.007   4.909
   28        1.615   3.287   0.007   4.909
   29        1.615   3.287   0.007   4.909
   30        1.615   3.287   0.007   4.909
   31        1.615   3.287   0.007   4.909
   32        1.615   3.287   0.007   4.909
   33        1.615   3.270   0.006   4.890
   34        1.615   3.270   0.006   4.890
   35        1.615   3.270   0.006   4.890
   36        1.615   3.270   0.006   4.890
   37        1.615   3.270   0.006   4.890
   38        1.615   3.270   0.006   4.890
   39        1.615   3.270   0.006   4.890
   40        1.615   3.270   0.006   4.890
tot         65.460 119.921  78.961 264.342