 vasp.5.4.4.18Apr17-6-g9f103f2a35 (build Jun 22 2020 09:27:21) complex

 INCAR:
 POTCAR:    PAW_PBE Cs_sv 08Apr2002
 POTCAR:    PAW_PBE Pb_d 06Sep2000
 POTCAR:    PAW_PBE Br 06Sep2000
 POTCAR:    PAW_PBE Cs_sv 08Apr2002
   VRHFIN =Cs: 5s5p6s

   TITEL  = PAW_PBE Cs_sv 08Apr2002
   POMASS =  132.900; ZVAL   =    9.000    mass and valenz
   ENMAX  =  220.318; ENMIN  =  165.238 eV

   TITEL  = PAW_PBE Pb_d 06Sep2000
   POMASS =  207.200; ZVAL   =   14.000    mass and valenz
   ENMAX  =  237.835; ENMIN  =  178.376 eV

   TITEL  = PAW_PBE Br 06Sep2000
   POMASS =   79.904; ZVAL   =    7.000    mass and valenz
   ENMAX  =  216.285; ENMIN  =  162.214 eV

 Optimization of the real space projectors (new method)

 maximal supplied QI-value         = 15.12
 optimisation between [QCUT,QGAM] = [  8.77, 17.69] = [ 21.53, 87.61] Ry
 Optimized for a Real-space Cutoff    1.85 Angstroem

   l    n(q)    QCUT    max X(q) W(low)/X(q) W(high)/X(q)  e(spline)
   0     10     8.768    25.322    0.81E-04    0.51E-04    0.48E-06
   0     10     8.768    99.187    0.78E-04    0.50E-04    0.47E-06
   1      9     8.768    11.761    0.21E-03    0.20E-03    0.37E-06
   1      9     8.768     8.275    0.24E-03    0.22E-03    0.41E-06
   2      9     8.768     3.829    0.23E-04    0.15E-03    0.18E-06
 Optimization of the real space projectors (new method)

[...]

   l    n(q)    QCUT    max X(q) W(low)/X(q) W(high)/X(q)  e(spline)
   2      7     8.768     3.846    0.48E-04    0.11E-03    0.11E-06
   2      7     8.768     8.593    0.20E-03    0.22E-04    0.24E-06
   0      8     8.768    20.082    0.68E-04    0.88E-04    0.41E-07
   0      8     8.768     8.597    0.89E-04    0.13E-03    0.59E-07
   1      8     8.768    33.223    0.15E-03    0.53E-04    0.87E-07
   1      8     8.768    15.899    0.14E-03    0.44E-04    0.78E-07
 Optimization of the real space projectors (new method)

 maximal supplied QI-value         = 17.95
 optimisation between [QCUT,QGAM] = [  8.80, 17.59] = [ 21.67, 86.68] Ry
 Optimized for a Real-space Cutoff    1.59 Angstroem

   l    n(q)    QCUT    max X(q) W(low)/X(q) W(high)/X(q)  e(spline)
   0      8     8.797   175.082    0.82E-04    0.14E-03    0.89E-07
   0      8     8.797   174.004    0.79E-04    0.14E-03    0.86E-07
   1      8     8.797    54.315    0.16E-03    0.14E-04    0.30E-06
   1      8     8.797    42.441    0.16E-03    0.14E-04    0.30E-06
   2      7     8.797     3.596    0.92E-04    0.15E-03    0.85E-07
  PAW_PBE Cs_sv 08Apr2002               :
  PAW_PBE Pb_d 06Sep2000                :
  PAW_PBE Br 06Sep2000                  :

 POSCAR: Cs8 Pb8 Br23
  positions in direct lattice

 METAGGA = SCAN     LMAXTAU =  6    LMIXTAU =  F

 VTST: version 3.2, (02/03/18)

 CHAIN: initializing optimizer

 OPT: Using VASP Conjugate-Gradient optimizer
 CHAIN: Read ICHAIN            0

 POSCAR: Cs8 Pb8 Br23
  positions in direct lattice

 ion  position               nearest neighbor table
   1  0.272  0.250  0.187-
   2  0.771  0.254  0.753-
   3  0.706  0.749  0.251-
   4  0.212  0.747  0.784-
   5  0.274  0.256  0.746-
   6  0.803  0.250  0.217-
   7  0.724  0.750  0.782-
   8  0.241  0.743  0.287-
   9  0.005  0.996  1.000-  21 2.95  30 2.98  34 2.99  19 2.99  32 3.00  29 3.08
  10  0.491  0.030  0.495-  20 2.77  31 2.91  28 2.96  33 2.97
  11  0.504  0.002  0.996-  23 2.96  17 2.97  32 2.97  30 3.00  28 3.02  33 3.03
  12  0.025  0.995  0.503-  31 2.90  29 2.94  18 2.97  24 3.02  34 3.05
  13  0.504  0.500  0.996-  23 2.97  25 2.97  17 2.97  37 2.98  26 2.99  35 2.99
  14  0.002  0.497  0.501-  36 2.85  24 2.97  38 2.99  27 3.01  18 3.08
  15  0.004  0.503  0.001-  21 2.95  35 2.97  25 2.98  19 2.99  27 3.02  38 3.02
  16  0.492  0.488  0.497-  37 2.97  26 2.97  22 2.98  20 3.05  36 3.10
  17  0.481  0.751  0.972-  11 2.97  13 2.97
  18  0.966  0.753  0.455-  12 2.97  14 3.08
  19  0.995  0.250  0.974-  15 2.99   9 2.99
  20  0.397  0.246  0.472-  10 2.77  16 3.05
  21  0.034  0.750  0.042-   9 2.95  15 2.95
  22  0.550  0.735  0.512-  16 2.98
  23  0.538  0.250  0.026-  11 2.96  13 2.97
  24  0.013  0.248  0.549-  14 2.97  12 3.02
  25  0.252  0.479  0.953-  13 2.97  15 2.98
  26  0.459  0.522  0.245-  16 2.97  13 2.99
  27  0.949  0.536  0.747-  14 3.01  15 3.02
  28  0.549  0.034  0.746-  10 2.96  11 3.02
  29  0.055  0.036  0.258-  12 2.94   9 3.08
  30  0.757  0.977  0.046-   9 2.98  11 3.00
  31  0.266  0.944  0.549-  12 2.90  10 2.91
  32  0.252  0.024  0.947-  11 2.97   9 3.00
  33  0.459  0.975  0.248-  10 2.97  11 3.03
  34  0.954  0.960  0.749-   9 2.99  12 3.05
  35  0.757  0.523  0.047-  15 2.97  13 2.99
  36  0.240  0.539  0.553-  14 2.85  16 3.10
  37  0.544  0.467  0.748-  16 2.97  13 2.98
  38  0.053  0.462  0.254-  14 2.99  15 3.02
  39  0.704  0.285  0.464-

IMPORTANT INFORMATION: All symmetrisations will be switched off!
NOSYMM: (Re-)initialisation of all symmetry stuff for point group C_1.

 KPOINTS: 1x1x1

Automatic generation of k-mesh.
Space group operators:
 irot       det(A)        alpha          n_x          n_y          n_z        tau_x        tau_y        tau_z
    1     1.000000     0.000001     1.000000     0.000000     0.000000     0.000000     0.000000     0.000000

 Subroutine IBZKPT returns following result:

 Found      8 irreducible k-points:

 Following reciprocal coordinates:
            Coordinates               Weight
  0.000000  0.000000  0.000000      1.000000
  0.500000  0.000000  0.000000      1.000000
  0.000000  0.500000  0.000000      1.000000
  0.500000  0.500000  0.000000      1.000000
  0.000000  0.000000  0.500000      1.000000
  0.500000  0.000000  0.500000      1.000000
  0.000000  0.500000  0.500000      1.000000
  0.500000  0.500000  0.500000      1.000000

 Following cartesian coordinates:
            Coordinates               Weight
 -0.000000  0.000000  0.000000      1.000000
  0.029563  0.000000  0.031093      1.000000
 -0.000000  0.042626  0.000000      1.000000
  0.029563  0.042626  0.031093      1.000000
 -0.029563  0.000000  0.031093      1.000000
  0.000000  0.000000  0.062187      1.000000
 -0.029563  0.042626  0.031093      1.000000
  0.000000  0.042626  0.062187      1.000000

 SYSTEM =  CsPbBr3 cubic bulk
 POSCAR =  Cs8 Pb8 Br23

 Startparameter for this run:
   NWRITE =      2    write-flag & timer
   PREC   = accura    normal or accurate (medium, high low for compatibility)
   ISTART =      0    job   : 0-new  1-cont  2-samecut
   ICHARG =      2    charge: 1-file 2-atom 10-const
   ISPIN  =      1    spin polarized calculation?
   LNONCOLLINEAR =      F non collinear calculations
   LSORBIT =      F    spin-orbit coupling
   INIWAV =      1    electr: 0-lowe 1-rand  2-diag
   LASPH  =      T    aspherical Exc in radial PAW
   METAGGA=      F    non-selfconsistent MetaGGA calc.

 Electronic Relaxation 1
   ENCUT  =  300.0 eV  22.05 Ry    4.70 a.u.  16.48 16.57 16.48*2*pi/ulx,y,z
   ENINI  =  300.0     initial cutoff
   ENAUG  =  503.9 eV  augmentation charge cutoff
   NELM   =    200;   NELMIN=  2; NELMDL= -5     # of ELM steps
   EDIFF  = 0.1E-05   stopping-criterion for ELM
   LREAL  =      T    real-space projection
   NLSPLINE    = F    spline interpolate recip. space projectors
   LCOMPAT=      F    compatible to vasp.4.4
   GGA_COMPAT  = T    GGA compatible to vasp.4.4-vasp.4.6
   LMAXPAW     = -100 max onsite density
   LMAXMIX     =    2 max onsite mixed and CHGCAR
   VOSKOWN=      0    Vosko Wilk Nusair interpolation
   ROPT   =   -0.00025  -0.00025  -0.00025
 Ionic relaxation
   EDIFFG = -.1E-01   stopping-criterion for IOM
   NSW    =      0    number of steps for IOM
   NBLOCK =      1;   KBLOCK =      1    inner block; outer block
   IBRION =     -1    ionic relax: 0-MD 1-quasi-New 2-CG
   NFREE  =      1    steps in history (QN), initial steepest desc. (CG)
   ISIF   =      2    stress and relaxation
   IWAVPR =     10    prediction:  0-non 1-charg 2-wave 3-comb
   ISYM   =      0    0-nonsym 1-usesym 2-fastsym
   LCORR  =      T    Harris-Foulkes like correction to forces

   POTIM  = 0.5000    time-step for ionic-motion
   TEIN   =    0.0    initial temperature
   TEBEG  =    0.0;   TEEND  =   0.0 temperature during run
   SMASS  =  -3.00    Nose mass-parameter (am)
   estimated Nose-frequenzy (Omega)   =  0.10E-29 period in steps =****** mass=  -0.311E-26a.u.
   SCALEE = 1.0000    scale energy and forces
   NPACO  =    256;   APACO  = 16.0  distance and # of slots for P.C.
   PSTRESS=    0.0 pullay stress

  Mass of Ions in am
   POMASS = 132.90207.20 79.90
  Ionic Valenz
   ZVAL   =   9.00 14.00  7.00
  Atomic Wigner-Seitz radii
  virtual crystal weights
   VCA    =   1.00  1.00  1.00
   NELECT =     344.0000    total number of electrons
   NUPDOWN=       0.0000    fix difference up-down

 DOS related values:
   EMIN   =  10.00;   EMAX   =-10.00  energy-range for DOS
   EFERMI =   0.00
   ISMEAR =     0;   SIGMA  =   0.01  broadening in eV -4-tet -1-fermi 0-gaus

 Electronic relaxation 2 (details)
   IALGO  =     38    algorithm
   LDIAG  =      T    sub-space diagonalisation (order eigenvalues)
   LSUBROT=      F    optimize rotation matrix (better conditioning)
   TURBO    =      0    0=normal 1=particle mesh
   IRESTART =      0    0=no restart 2=restart with 2 vectors
   NREBOOT  =      0    no. of reboots
   NMIN     =      0    reboot dimension
   EREF     =   0.00    reference energy to select bands
   IMIX   =      4    mixing-type and parameters
     AMIX     =   0.40;   BMIX     =  1.00
     AMIX_MAG =   1.60;   BMIX_MAG =  1.00
     AMIN     =   0.10
     WC   =   100.;   INIMIX=   1;  MIXPRE=   1;  MAXMIX= -45

 Intra band minimization:
   WEIMIN = 0.0000     energy-eigenvalue tresh-hold
   EBREAK =  0.12E-08  absolut break condition
   DEPER  =   0.30     relativ break condition

   TIME   =   0.40     timestep for ELM

  volume/ion in A,a.u.               =      40.90       276.00
  Fermi-wavevector in a.u.,A,eV,Ry     =   0.981747  1.855232 13.113654  0.963826
  Thomas-Fermi vector in A             =   2.112777

 Write flags
   LWAVE        =      F    write WAVECAR
   LDOWNSAMPLE  =      F    k-point downsampling of WAVECAR
   LCHARG       =      F    write CHGCAR
   LVTOT        =      F    write LOCPOT, total local potential
   LVHAR        =      T    write LOCPOT, Hartree potential only
   LELF         =      F    write electronic localiz. function (ELF)
   LORBIT       =     10    0 simple, 1 ext, 2 COOP (PROOUT), +10 PAW based schemes

 Dipole corrections
   LMONO  =      F    monopole corrections only (constant potential shift)
   LDIPOL =      F    correct potential (dipole corrections)
   IDIPOL =      0    1-x, 2-y, 3-z, 4-all directions
   EPSILON=  1.0000000 bulk dielectric constant

 Exchange correlation treatment:
   GGA     =    --    GGA type
   VOSKOWN=      0    Vosko Wilk Nusair interpolation
   LHFCALC =     F    Hartree Fock is set to
   LHFONE  =     F    Hartree Fock one center treatment
   AEXX    =    0.0000 exact exchange contribution

 Linear response parameters
   LEPSILON=     F    determine dielectric tensor
   LRPA    =     F    only Hartree local field effects (RPA)
   LNABLA  =     F    use nabla operator in PAW spheres
[...]
     14     -16.7274      2.00000
     15     -16.7221      2.00000
     16     -16.6840      2.00000
     17     -16.6817      2.00000
     18     -16.6754      2.00000
     19     -16.6596      2.00000
     20     -16.6377      2.00000
     21     -16.6288      2.00000
     22     -16.6190      2.00000
     23     -16.6132      2.00000
     24     -16.6093      2.00000
     25     -16.5835      2.00000
     26     -16.5641      2.00000
     27     -16.5523      2.00000
     28     -16.4981      2.00000
     29     -16.4625      2.00000
     30     -16.4556      2.00000
     31     -16.4440      2.00000
     32     -16.4402      2.00000
     33     -16.4346      2.00000
     34     -16.4321      2.00000
     35     -16.4122      2.00000
     36     -16.4065      2.00000
     37     -16.3492      2.00000
     38     -16.3428      2.00000
     39     -16.3353      2.00000
     40     -16.3270      2.00000
     41     -16.3247      2.00000
     42     -16.3207      2.00000
     43     -16.3162      2.00000
     44     -16.3143      2.00000
     45     -16.3075      2.00000
     46     -16.2887      2.00000
     47     -16.2839      2.00000
     48     -16.2743      2.00000
     49     -14.7085      2.00000
     50     -14.4716      2.00000
     51     -14.3041      2.00000
     52     -14.2872      2.00000
     53     -14.2745      2.00000
     54     -14.2665      2.00000
     55     -14.2521      2.00000
     56     -14.1365      2.00000
     57     -14.0618      2.00000
     58     -14.0276      2.00000
     59     -13.9937      2.00000
     60     -13.9678      2.00000
[...]
    194       4.8110      0.00000
    195       4.8269      0.00000
    196       4.8659      0.00000
    197       6.0261      0.00000
    198       6.0804      0.00000
    199       6.1837      0.00000
    200       6.2560      0.00000
    201       6.2705      0.00000
    202       6.3036      0.00000
    203       6.3963      0.00000
    204       6.4208      0.00000
    205       6.4405      0.00000
    206       6.4654      0.00000
    207       6.5144      0.00000
    208       6.5322      0.00000

 soft charge-density along one line, spin component           1
         0         1         2         3         4         5         6         7         8         9
 total charge-density along one line

------------------------ aborting loop because EDIFF is reached ----------------------------------------

 total charge

# of ion       s       p       d       tot
    1        1.787   4.717   0.021   6.525
    2        1.788   4.717   0.023   6.528
    3        1.786   4.717   0.018   6.521
    4        1.786   4.717   0.019   6.522
    5        1.786   4.716   0.019   6.522
    6        1.791   4.717   0.029   6.537
    7        1.785   4.717   0.018   6.520
    8        1.785   4.716   0.016   6.518
    9        1.553   0.418   9.834  11.805
   10        1.528   0.439   9.830  11.797
   11        1.554   0.420   9.834  11.808
   12        1.541   0.421   9.828  11.791
   13        1.554   0.425   9.836  11.814
   14        1.534   0.423   9.829  11.786
   15        1.554   0.420   9.834  11.808
   16        1.549   0.392   9.828  11.769
   17        1.615   3.285   0.007   4.907
   18        1.614   3.274   0.005   4.893
   19        1.614   3.288   0.007   4.909
   20        1.618   3.287   0.009   4.914
   21        1.615   3.284   0.007   4.906
   22        1.612   3.275   0.004   4.890
   23        1.615   3.284   0.007   4.905
   24        1.615   3.272   0.006   4.894
   25        1.614   3.289   0.007   4.910
   26        1.614   3.282   0.006   4.902
   27        1.614   3.278   0.006   4.898
   28        1.615   3.278   0.006   4.899
   29        1.614   3.277   0.006   4.897
   30        1.614   3.283   0.006   4.904
   31        1.616   3.268   0.007   4.892
   32        1.614   3.286   0.007   4.907
   33        1.614   3.278   0.006   4.898
   34        1.614   3.276   0.006   4.895
   35        1.614   3.284   0.006   4.905
   36        1.615   3.269   0.007   4.891
   37        1.615   3.280   0.006   4.901
   38        1.614   3.278   0.006   4.898
   39        1.611   3.290   0.003   4.905
tot         63.791 116.540  78.959 259.290

  FORCE on cell =-STRESS in cart. coord.  units (eV):
  Direction    XX          YY          ZZ          XY          YZ          ZX
  Alpha Z   872.70584   872.70584   872.70584
  Ewald   -6094.61851 -5520.88389 -6301.96314    29.71702    29.34053  -394.37733
  Hartree  2391.08333  2833.52992  2243.53200    22.83341    22.07694  -263.04729
  E(xc)   -1449.14691 -1449.13508 -1449.24013    -0.03620     0.00608    -0.37146
  Local   -2686.76345 -3701.26306 -2332.09911   -51.98464   -51.60727   658.70238
  n-local  1745.49630  1748.69396  1744.81449    -0.16815    -0.20484    -2.83275
  augment   817.93737   818.99717   817.09799    -0.01289    -0.00792    -1.02538
  Kinetic  4398.09671  4389.85203  4400.48486    -0.59929     0.48546     1.20932
  Fock        0.00000     0.00000     0.00000     0.00000     0.00000     0.00000
  Total      -5.20932    -7.50311    -4.66720    -0.25076     0.08898    -1.74251
  in kB      -5.23247    -7.53646    -4.68794    -0.25187     0.08937    -1.75025

 VOLUME and BASIS-vectors are now :
  energy-cutoff  :      300.00
  volume of cell :     1595.09
      direct lattice vectors                 reciprocal lattice vectors
     8.456489000  0.000000000  8.040301000     0.059126193 -0.000000000  0.062186727
     0.000000000 11.729847000  0.000000000     0.000000000  0.085252604 -0.000000000
    -8.456489000  0.000000000  8.040301000    -0.059126193  0.000000000  0.062186727

  length of vectors
    11.668703715 11.729847000 11.668703715     0.085808482  0.085252604  0.085808482

 FORCES acting on ions
    electron-ion (+dipol)            ewald-force                    non-local-force                 convergence-correction
   0.328E+02 0.481E+01 -.254E+02   -.329E+02 -.478E+01 0.254E+02   0.800E-01 -.345E-01 -.943E-01   -.929E-05 -.761E-05 0.672E-04
   -.126E+02 0.175E+02 0.188E+02   0.129E+02 -.174E+02 -.192E+02   -.385E+00 -.144E+00 0.479E+00   -.492E-04 -.318E-04 -.100E-04
   0.156E+02 -.135E+02 -.749E+02   -.156E+02 0.135E+02 0.746E+02   0.725E-01 0.418E-01 0.251E+00   -.234E-04 0.629E-04 -.712E-04
   -.431E+02 -.559E+01 0.699E+01   0.428E+02 0.552E+01 -.681E+01   0.192E+00 0.711E-01 -.168E+00   0.320E-04 -.123E-05 -.331E-04
   0.911E+01 0.871E+01 0.178E+02   -.915E+01 -.861E+01 -.179E+02   0.799E-02 -.101E+00 0.834E-01   0.546E-04 -.660E-05 -.458E-05
   0.561E+02 0.179E+02 -.159E+02   -.561E+02 -.178E+02 0.159E+02   0.623E+00 -.246E+00 -.163E+00   -.296E-04 -.451E-04 -.638E-04
   -.566E+02 -.113E+02 0.371E+02   0.566E+02 0.113E+02 -.372E+02   0.160E-01 0.419E-01 0.191E+00   -.150E-04 0.250E-04 -.208E-04
   -.156E+02 -.792E+01 -.822E+00   0.156E+02 0.787E+01 0.715E+00   0.348E-01 0.645E-01 0.966E-01   0.269E-05 0.775E-05 0.790E-04
   0.297E+02 0.198E+02 0.117E+02   -.301E+02 -.193E+02 -.109E+02   0.407E+00 -.497E+00 -.759E+00   -.103E-03 0.160E-03 -.113E-03
   -.136E+03 0.686E+02 -.104E+03   0.141E+03 -.719E+02 0.108E+03   -.493E+01 0.321E+01 -.419E+01   -.281E-03 0.211E-03 -.227E-03
   -.107E+02 0.196E+02 -.222E+02   0.107E+02 -.198E+02 0.224E+02   -.430E-01 0.215E+00 -.207E+00   0.948E-04 0.134E-03 0.131E-03
   0.873E+02 -.223E+01 0.105E+03   -.906E+02 0.339E+01 -.108E+03   0.330E+01 -.106E+01 0.241E+01   0.208E-03 0.943E-04 0.247E-03
   -.125E+02 -.205E+02 -.205E+02   0.126E+02 0.207E+02 0.206E+02   -.121E+00 -.215E+00 -.747E-01   0.727E-04 -.128E-03 0.100E-03
   0.748E+02 -.190E+02 0.119E+03   -.781E+02 0.193E+02 -.124E+03   0.324E+01 -.344E+00 0.494E+01   0.174E-03 -.162E-03 0.332E-03
   0.246E+02 -.229E+02 0.163E+02   -.245E+02 0.226E+02 -.164E+02   -.154E+00 0.249E+00 0.142E+00   -.621E-04 -.162E-03 -.101E-03
   -.809E+02 -.406E+02 -.568E+02   0.822E+02 0.391E+02 0.577E+02   -.119E+01 0.132E+01 -.603E+00   -.447E-05 -.124E-03 -.682E-05
   0.137E+01 -.397E+01 0.216E+02   -.150E+01 0.396E+01 -.218E+02   0.112E+00 0.560E-03 0.202E+00   0.695E-04 0.195E-05 0.758E-04
   0.445E+02 0.876E+00 0.773E+02   -.446E+02 -.102E+01 -.776E+02   0.408E-01 0.113E+00 0.303E+00   -.369E-04 0.611E-04 0.196E-05
   -.107E+02 0.520E+01 0.294E+02   0.109E+02 -.520E+01 -.295E+02   -.120E+00 0.337E-02 0.136E+00   -.569E-04 -.176E-04 -.680E-04
   0.178E+02 -.229E+02 0.563E+02   -.182E+02 0.235E+02 -.570E+02   0.258E-01 -.514E+00 0.377E+00   0.442E-04 -.821E-05 0.133E-04
   0.343E+02 -.423E+01 -.320E+02   -.346E+02 0.422E+01 0.323E+02   0.209E+00 0.406E-02 -.324E+00   -.660E-04 0.209E-04 -.357E-04
   -.359E+02 -.533E+02 -.518E+02   0.359E+02 0.538E+02 0.519E+02   0.585E-02 -.419E+00 -.163E+00   0.126E-04 0.359E-04 0.154E-04
   -.103E+02 0.445E+01 -.483E+02   0.104E+02 -.444E+01 0.487E+02   -.121E+00 -.881E-02 -.381E+00   0.342E-04 -.745E-05 0.728E-04
   0.209E+02 0.167E+02 0.566E+01   -.213E+02 -.169E+02 -.566E+01   0.500E+00 0.964E-01 0.207E+00   -.610E-05 -.208E-04 -.221E-04
   -.191E+02 -.959E+00 0.212E+02   0.192E+02 0.855E+00 -.214E+02   -.112E+00 0.112E+00 0.208E+00   0.424E-05 -.840E-04 0.241E-04
   0.136E+02 -.233E+02 -.153E+02   -.137E+02 0.235E+02 0.151E+02   0.772E-01 -.130E+00 0.211E+00   0.556E-06 -.667E-04 0.479E-04
   0.169E+02 -.307E+02 0.640E+02   -.171E+02 0.308E+02 -.643E+02   0.223E+00 -.135E+00 0.236E+00   -.485E-04 -.646E-04 -.381E-04
   -.574E+02 0.107E+02 -.208E+02   0.576E+02 -.106E+02 0.211E+02   -.247E+00 -.682E-01 -.230E+00   0.725E-04 0.663E-04 0.437E-04
   0.133E+02 -.105E+02 -.851E+01   -.129E+02 0.107E+02 0.852E+01   -.293E+00 -.271E+00 0.114E-01   -.356E-04 0.733E-04 -.383E-05
   0.344E+02 0.204E+02 -.356E+02   -.346E+02 -.205E+02 0.358E+02   0.212E+00 0.575E-01 -.177E+00   -.178E-04 0.862E-04 -.372E-05
   0.184E+02 0.571E+02 -.319E+02   -.187E+02 -.578E+02 0.324E+02   0.219E+00 0.733E+00 -.559E+00   0.665E-04 0.101E-03 -.403E-04
   -.216E+02 0.809E+00 0.244E+02   0.217E+02 -.687E+00 -.247E+02   -.140E+00 -.136E+00 0.277E+00   -.787E-05 0.833E-04 0.169E-04
   0.735E+01 0.308E+02 -.196E+02   -.748E+01 -.311E+02 0.194E+02   0.141E+00 0.247E+00 0.160E+00   0.513E-05 0.676E-04 0.637E-04
   0.123E+02 0.224E+02 0.814E+02   -.124E+02 -.226E+02 -.818E+02   0.147E+00 0.132E+00 0.338E+00   -.545E-04 0.720E-04 -.773E-04
   0.320E+02 -.228E+02 -.339E+02   -.323E+02 0.229E+02 0.341E+02   0.207E+00 -.586E-01 -.199E+00   -.738E-05 -.791E-04 -.406E-04
   -.618E+00 -.402E+02 -.415E+02   0.614E+00 0.406E+02 0.423E+02   0.121E+00 -.407E+00 -.663E+00   0.600E-04 -.736E-04 -.138E-04
   -.476E+02 -.292E+01 -.160E+02   0.479E+02 0.274E+01 0.163E+02   -.185E+00 0.175E+00 -.271E+00   0.529E-04 -.655E-04 0.250E-04
   0.129E+02 0.107E+02 -.234E+02   -.127E+02 -.109E+02 0.236E+02   -.234E+00 0.257E+00 -.173E+00   0.347E-05 -.979E-04 0.109E-04
   -.399E+02 0.193E+02 -.165E+02   0.400E+02 -.194E+02 0.167E+02   -.770E+00 0.487E+00 -.137E+00   -.243E-04 -.814E-04 -.253E-04
   -.105E+01 -.285E+01 -.175E+01   0.284E-13 0.320E-13 0.284E-13   0.117E+01 0.284E+01 0.172E+01   0.126E-03 0.285E-04 0.349E-03

 POSITION                                       TOTAL-FORCE (eV/Angst)
      0.72173      2.92894      3.68818         0.005625      0.000623     -0.064520
      0.14982      2.97861     12.25882        -0.060309     -0.013040      0.090816
      3.85475      8.78825      7.69398         0.021688     -0.002488     -0.047830
     -4.84399      8.75891      8.00894        -0.025780      0.001234      0.030392
     -3.99182      2.99771      8.19469        -0.035828      0.002631     -0.018494
      4.95146      2.93068      8.19821         0.519649     -0.070992     -0.219806
     -0.49425      8.79328     12.11185        -0.024733     -0.000076      0.007299
     -0.38978      8.71799      4.25083         0.018054      0.010181     -0.008585
     -8.41178     11.68232      8.07573         0.006844      0.044602      0.021305
     -0.03449      0.34872      7.93493         0.217074     -0.140240      0.165793
     -4.16034      0.02005     12.05410         0.014266      0.027764     -0.000089
     -4.04214     11.67349      4.24210         0.023502      0.110629      0.025173
     -4.16258      5.85969     12.06220         0.016596     -0.028650      0.021939
     -4.21405      5.82969      4.04357        -0.008394     -0.138831     -0.027645
      0.02863      5.89970      0.03869        -0.016758     -0.052038     -0.000349
     -0.04461      5.72047      7.94902         0.198649     -0.136080      0.227625
     -4.15450      8.80768     11.68628        -0.006352     -0.005034     -0.002131
      4.32059      8.83313     11.42276        -0.004839     -0.012548     -0.014283
      0.17456      2.92769     15.82941         0.058558     -0.005451      0.058280
     -0.63109      2.88391      6.98818        -0.362726      0.059509     -0.324916
     -0.06583      8.79390      0.60766         0.003312     -0.000839      0.009375
      0.32662      8.61958      8.53801        -0.030929     -0.011030     -0.061221
      4.32985      2.93507      4.52750        -0.004164      0.002932     -0.030403
     -4.52914      2.91084      4.51640         0.140597     -0.033775      0.208517
     -5.93231      5.61287      9.68887         0.020323      0.010858      0.005715
      1.80978      6.11984      5.66070        -0.064901      0.017223      0.043279
      1.70594      6.28495     13.63633         0.030842      0.017991     -0.008122
     -1.65987      0.39703     10.41176        -0.034821     -0.000410      0.009900
     -1.71771      0.42685      2.51048        -0.019149     -0.028159      0.029286
      6.00959     11.46150      6.46099         0.001173     -0.034239     -0.007047
     -2.39143     11.07854      6.55164        -0.072953      0.010515     -0.073316
     -5.87386      0.27869      9.64047         0.016659     -0.016538      0.009828
      1.78907     11.43302      5.68552         0.028084     -0.019447     -0.033401
      1.73503     11.26607     13.68993         0.037672     -0.009800     -0.028328
      6.00441      6.13146      6.46146        -0.008466      0.030703     -0.014403
     -2.65206      6.31802      6.37585         0.096300     -0.033528      0.029691
     -1.72516      5.48338     10.38299         0.025545      0.006474     -0.048893
     -1.70067      5.41398      2.47230        -0.017665      0.028843      0.031162
      2.02650      3.34007      9.38765        -0.702246      0.410521      0.008406
    total drift:                                0.120648     -0.004888     -0.030048

  FREE ENERGIE OF THE ION-ELECTRON SYSTEM (eV)
  free  energy   TOTEN  =     -1408.91896707 eV

  energy  without entropy=    -1408.91896707  energy(sigma->0) =    -1408.91896707

 stress matrix after NEB project (eV)
     -5.20932     -0.25073     -1.74251
     -0.25076     -7.50311      0.08891
     -1.74264      0.08898     -4.66720
  FORCES: max atom, RMS     0.813479    0.203749
  FORCE total and by dimension    1.272409    0.702246
  Stress total and by dimension   10.556100    7.503115

 total charge

# of ion       s       p       d       tot
    1        1.787   4.717   0.021   6.525
    2        1.788   4.717   0.023   6.528
    3        1.786   4.717   0.018   6.521
    4        1.786   4.717   0.019   6.522
    5        1.786   4.716   0.019   6.522
    6        1.791   4.717   0.029   6.537
    7        1.785   4.717   0.018   6.520
    8        1.785   4.716   0.016   6.518
    9        1.553   0.418   9.834  11.805
   10        1.528   0.439   9.830  11.797
   11        1.554   0.420   9.834  11.808
   12        1.541   0.421   9.828  11.791
   13        1.554   0.425   9.836  11.814
   14        1.534   0.423   9.829  11.786
   15        1.554   0.420   9.834  11.808
   16        1.549   0.392   9.828  11.769
   17        1.615   3.285   0.007   4.907
   18        1.614   3.274   0.005   4.893
   19        1.614   3.288   0.007   4.909
   20        1.618   3.287   0.009   4.914
   21        1.615   3.284   0.007   4.906
   22        1.612   3.275   0.004   4.890
   23        1.615   3.284   0.007   4.905
   24        1.615   3.272   0.006   4.894
   25        1.614   3.289   0.007   4.910
   26        1.614   3.282   0.006   4.902
   27        1.614   3.278   0.006   4.898
   28        1.615   3.278   0.006   4.899
   29        1.614   3.277   0.006   4.897
   30        1.614   3.283   0.006   4.904
   31        1.616   3.268   0.007   4.892
   32        1.614   3.286   0.007   4.907
   33        1.614   3.278   0.006   4.898
   34        1.614   3.276   0.006   4.895
   35        1.614   3.284   0.006   4.905
   36        1.615   3.269   0.007   4.891
   37        1.615   3.280   0.006   4.901
   38        1.614   3.278   0.006   4.898
   39        1.611   3.290   0.003   4.905
tot         63.791 116.540  78.959 259.290