 vasp.5.4.4.18Apr17-6-g9f103f2a35 (build Jun 22 2020 09:36:46) gamma-only

 INCAR:
 POTCAR:    PAW_PBE Cs_sv 08Apr2002
 POTCAR:    PAW_PBE Pb_d 06Sep2000
 POTCAR:    PAW_PBE Br 06Sep2000
 POTCAR:    PAW_PBE Cs_sv 08Apr2002
 POTCAR:    PAW_PBE Pb_d 06Sep2000
 POTCAR:    PAW_PBE Br 06Sep2000
 POTCAR:    PAW_PBE Cs_sv 08Apr2002
   VRHFIN =Cs: 5s5p6s

   TITEL  = PAW_PBE Cs_sv 08Apr2002
   POMASS =  132.900; ZVAL   =    9.000    mass and valenz
   ENMAX  =  220.318; ENMIN  =  165.238 eV

   TITEL  = PAW_PBE Pb_d 06Sep2000
   POMASS =  207.200; ZVAL   =   14.000    mass and valenz
   ENMAX  =  237.835; ENMIN  =  178.376 eV

   TITEL  = PAW_PBE Br 06Sep2000
   POMASS =   79.904; ZVAL   =    7.000    mass and valenz
   ENMAX  =  216.285; ENMIN  =  162.214 eV

   TITEL  = PAW_PBE Cs_sv 08Apr2002
   POMASS =  132.900; ZVAL   =    9.000    mass and valenz
   ENMAX  =  220.318; ENMIN  =  165.238 eV

   TITEL  = PAW_PBE Pb_d 06Sep2000
   POMASS =  207.200; ZVAL   =   14.000    mass and valenz
   ENMAX  =  237.835; ENMIN  =  178.376 eV

   TITEL  = PAW_PBE Br 06Sep2000
   POMASS =   79.904; ZVAL   =    7.000    mass and valenz
   ENMAX  =  216.285; ENMIN  =  162.214 eV

 Optimization of the real space projectors (new method)

 maximal supplied QI-value         = 15.12
 optimisation between [QCUT,QGAM] = [  8.77, 17.69] = [ 21.53, 87.61] Ry
 Optimized for a Real-space Cutoff    1.85 Angstroem

   l    n(q)    QCUT    max X(q) W(low)/X(q) W(high)/X(q)  e(spline)
   0     10     8.768    25.322    0.81E-04    0.51E-04    0.48E-06
   0     10     8.768    99.187    0.78E-04    0.50E-04    0.47E-06
   1      9     8.768    11.761    0.21E-03    0.20E-03    0.37E-06
   1      9     8.768     8.275    0.24E-03    0.22E-03    0.41E-06
   2      9     8.768     3.829    0.23E-04    0.15E-03    0.18E-06
 Optimization of the real space projectors (new method)

[...]

   l    n(q)    QCUT    max X(q) W(low)/X(q) W(high)/X(q)  e(spline)
   2      7     8.768     3.846    0.48E-04    0.11E-03    0.11E-06
   2      7     8.768     8.593    0.20E-03    0.22E-04    0.24E-06
   0      8     8.768    20.082    0.68E-04    0.88E-04    0.41E-07
   0      8     8.768     8.597    0.89E-04    0.13E-03    0.59E-07
   1      8     8.768    33.223    0.15E-03    0.53E-04    0.87E-07
   1      8     8.768    15.899    0.14E-03    0.44E-04    0.78E-07
 Optimization of the real space projectors (new method)

 maximal supplied QI-value         = 17.95
 optimisation between [QCUT,QGAM] = [  8.80, 17.59] = [ 21.67, 86.68] Ry
 Optimized for a Real-space Cutoff    1.59 Angstroem

   l    n(q)    QCUT    max X(q) W(low)/X(q) W(high)/X(q)  e(spline)
   0      8     8.797   175.082    0.82E-04    0.14E-03    0.89E-07
   0      8     8.797   174.004    0.79E-04    0.14E-03    0.86E-07
   1      8     8.797    54.315    0.16E-03    0.14E-04    0.30E-06
   1      8     8.797    42.441    0.16E-03    0.14E-04    0.30E-06
   2      7     8.797     3.596    0.92E-04    0.15E-03    0.85E-07
  PAW_PBE Cs_sv 08Apr2002               :
  PAW_PBE Pb_d 06Sep2000                :
  PAW_PBE Br 06Sep2000                  :
  PAW_PBE Cs_sv 08Apr2002               :
  PAW_PBE Pb_d 06Sep2000                :
  PAW_PBE Br 06Sep2000                  :

 POSCAR: Cs64 Pb64 Br191
  positions in direct lattice

 METAGGA = SCAN     LMAXTAU =  6    LMIXTAU =  F

 VTST: version 3.2, (02/03/18)

 CHAIN: initializing optimizer

 OPT: Using VASP Conjugate-Gradient optimizer
 CHAIN: Read ICHAIN            0

 POSCAR: Cs64 Pb64 Br191
  positions in direct lattice

 ion  position               nearest neighbor table
   1  0.886  0.875  0.354-
   2  0.136  0.875  0.604-
   3  0.889  0.374  0.353-
   4  0.137  0.375  0.604-
   5  0.886  0.876  0.854-
   6  0.136  0.875  0.104-
   7  0.386  0.875  0.354-
   8  0.636  0.876  0.604-
   9  0.889  0.373  0.854-
  10  0.136  0.375  0.104-
  11  0.386  0.875  0.854-
  12  0.636  0.875  0.104-
  13  0.386  0.375  0.854-
  14  0.636  0.374  0.104-
  15  0.104  0.125  0.386-
  16  0.354  0.125  0.636-
  17  0.103  0.625  0.387-
  18  0.104  0.125  0.887-
  19  0.354  0.125  0.136-
  20  0.604  0.125  0.386-
  21  0.853  0.125  0.636-
  22  0.104  0.625  0.886-
  23  0.354  0.625  0.136-
  24  0.868  0.633  0.636-
  25  0.604  0.125  0.886-
  26  0.854  0.125  0.136-
  27  0.602  0.626  0.888-
  28  0.857  0.626  0.137-
  29  0.896  0.875  0.114-
  30  0.147  0.875  0.364-
  31  0.897  0.375  0.114-
  32  0.147  0.375  0.364-
  33  0.897  0.876  0.614-
  34  0.147  0.875  0.865-
  35  0.396  0.875  0.114-
  36  0.647  0.875  0.364-
  37  0.901  0.373  0.615-
  38  0.147  0.375  0.864-
  39  0.397  0.375  0.114-
  40  0.396  0.875  0.614-
  41  0.647  0.875  0.865-
  42  0.643  0.374  0.864-
  43  0.114  0.125  0.147-
  44  0.364  0.125  0.396-
  45  0.114  0.625  0.146-
  46  0.114  0.125  0.647-
  47  0.364  0.125  0.897-
  48  0.614  0.125  0.147-
  49  0.864  0.125  0.396-
  50  0.115  0.625  0.647-
  51  0.364  0.625  0.897-
  52  0.613  0.626  0.147-
  53  0.865  0.628  0.398-
  54  0.614  0.124  0.647-
  55  0.864  0.125  0.897-
  56  0.865  0.627  0.896-
  57  0.750  0.750  0.250- 132 2.99 225 3.00 310 3.01 252 3.01 203 3.01 143 3.02
  58  0.001  0.751  0.500- 133 2.98 226 2.99 241 3.00 220 3.00 144 3.01 200 3.01
  59  0.750  0.251  0.250- 141 2.99 227 3.00 216 3.01 250 3.01 136 3.02 207 3.02
  60  0.000  0.250  0.500- 142 2.98 228 3.00 239 3.01 204 3.01 217 3.01 137 3.02
  61  0.750  0.751  0.750- 138 2.98 209 3.00 223 3.01 315 3.01 229 3.01 149 3.03
  62  0.000  0.751  0.000- 139 2.99 230 3.00 150 3.00 247 3.01 197 3.01 224 3.01
  63  0.250  0.750  0.250- 127 2.99 301 3.00 248 3.01 213 3.01 231 3.01 198 3.01
  64  0.500  0.750  0.500- 128 2.98 314 3.00 311 3.00 302 3.01 232 3.01 208 3.02
  65  0.750  0.251  0.750- 145 2.98 233 3.00 221 3.00 246 3.01 210 3.01 299 3.05
  66  0.000  0.250  0.000- 146 2.98 234 3.00 199 3.00 140 3.00 222 3.01 243 3.01
  67  0.250  0.751  0.750- 130 2.99 153 3.00 218 3.00 201 3.00 242 3.01 236 3.01
  68  0.500  0.751  0.000- 131 2.99 154 3.00 219 3.00 202 3.01 251 3.01 237 3.01
  69  0.250  0.250  0.750- 151 2.99 312 3.00 134 3.00 205 3.01 240 3.01 214 3.01
  70  0.500  0.250  0.000- 152 2.99 215 3.00 249 3.00 135 3.01 206 3.01 238 3.01
  71  0.000  0.751  0.250- 155 2.99 115 3.00 197 3.00 213 3.00 241 3.01 225 3.01
  72  0.250  0.750  0.500- 156 2.99 116 3.00 198 3.00 226 3.01 242 3.01 311 3.01
  73  0.000  0.250  0.250- 113 2.98 211 3.00 199 3.00 239 3.01 157 3.01 227 3.02
  74  0.001  0.752  0.751- 158 2.97 218 2.99 247 3.00 200 3.00 121 3.01 229 3.02
  75  0.250  0.750  0.000- 122 2.99 159 3.00 248 3.01 201 3.01 230 3.01 219 3.01
  76  0.500  0.750  0.250- 160 2.99 123 3.00 231 3.00 202 3.00 314 3.01 310 3.02
  77  0.750  0.751  0.500- 161 2.98 232 2.99 203 3.00 220 3.00 315 3.00 298 3.04
  78  0.000  0.249  0.750- 117 2.98 214 3.00 243 3.00 204 3.01 162 3.01 233 3.02
  79  0.250  0.250  0.000- 118 2.99 163 3.00 244 3.01 205 3.01 234 3.01 215 3.01
  80  0.750  0.250  0.500- 120 2.97 217 3.00 207 3.01 313 3.01 246 3.01 164 3.06
  81  0.500  0.751  0.750- 165 2.98 236 2.99 251 3.00 297 3.00 208 3.01 223 3.03
  82  0.750  0.750  0.000- 166 2.99 252 3.00 224 3.00 237 3.01 209 3.01 126 3.02
  83  0.500  0.249  0.751- 124 2.98 308 2.99 249 3.00 312 3.00 221 3.01 167 3.02
  84  0.750  0.250  0.000- 125 2.98 238 3.00 222 3.01 250 3.01 210 3.02 168 3.02
  85  0.000  0.000  0.250- 155 2.99 113 3.00 267 3.00 253 3.01 183 3.01 169 3.01
  86  0.250  0.000  0.500- 156 3.00 114 3.00 268 3.00 184 3.01 170 3.01 254 3.01
  87  0.001  0.500  0.250- 157 2.99 115 2.99 255 2.99 269 3.00 185 3.02 171 3.03
  88  0.000  0.001  0.750- 158 2.99 117 3.00 187 3.00 256 3.00 270 3.01 173 3.01
  89  0.250  0.000  0.000- 159 2.99 118 3.00 188 3.00 271 3.01 174 3.01 257 3.01
  90  0.500  0.000  0.250- 160 3.00 119 3.00 175 3.00 272 3.00 189 3.01 258 3.01
  91  0.750  0.001  0.500- 161 3.00 273 3.00 176 3.00 259 3.01 190 3.01 120 3.01
  92  0.001  0.500  0.750- 162 2.98 260 2.99 121 3.00 191 3.00 274 3.01 177 3.06
  93  0.250  0.500  0.000- 163 2.99 122 3.00 192 3.00 275 3.01 178 3.01 261 3.01
  94  0.754  0.497  0.496- 277 2.80 164 2.96 262 2.98 306 2.99 298 3.00
  95  0.500  1.000  0.750- 165 2.99 124 3.00 180 3.00 193 3.00 278 3.01 263 3.01
  96  0.750  0.000  0.000- 166 3.00 194 3.00 181 3.01 125 3.01 264 3.01 279 3.01
  97  0.500  0.501  0.750- 305 2.98 167 2.99 297 3.00 195 3.00 318 3.02 265 3.05
  98  0.750  0.501  0.003- 196 2.95 168 2.98 126 2.99 182 2.99 266 2.99 280 3.16
  99  0.750  0.000  0.250- 132 3.00 258 3.00 169 3.01 194 3.01 141 3.01 273 3.01
 100  0.000  0.001  0.500- 133 2.99 142 3.00 170 3.00 183 3.01 270 3.01 259 3.01
 101  0.750  0.501  0.249- 196 2.96 136 2.98 143 2.99 316 3.00 171 3.00 277 3.13
 102  0.001  0.500  0.500- 137 2.98 172 2.99 144 3.00 185 3.01 274 3.01 262 3.04
 103  0.750  0.001  0.750- 263 3.00 279 3.00 138 3.00 173 3.00 190 3.01 145 3.01
 104  0.000  0.000  0.000- 139 2.99 146 3.00 174 3.00 267 3.01 264 3.01 187 3.01
 105  0.250  0.000  0.250- 127 2.99 147 3.00 253 3.01 188 3.01 175 3.01 268 3.01
 106  0.500  1.000  0.500- 128 2.99 148 3.00 254 3.00 189 3.00 176 3.01 278 3.01
 107  0.751  0.499  0.756- 280 2.80 299 2.98 149 2.98 265 2.99 177 3.00
 108  0.000  0.500  0.000- 140 2.99 150 2.99 178 3.00 269 3.01 191 3.01 266 3.02
 109  0.250  0.000  0.750- 130 2.99 151 3.00 271 3.01 256 3.01 184 3.01 180 3.01
 110  0.500  0.000  0.000- 131 2.99 152 3.00 257 3.00 193 3.01 272 3.01 181 3.01
 111  0.250  0.500  0.750- 134 2.99 153 3.00 275 3.00 260 3.01 186 3.01 305 3.02
 112  0.500  0.500  0.000- 135 2.99 261 2.99 154 3.00 276 3.01 195 3.01 182 3.03
 113  0.984  0.126  0.231-  73 2.98  85 3.00
 114  0.235  0.125  0.481- 292 2.99  86 3.00
 115  0.986  0.625  0.232-  87 2.99  71 3.00
 116  0.235  0.625  0.481- 294 2.99  72 3.00
[...]
 266  0.876  0.518  0.025-  98 2.99 108 3.02
 267  0.026  0.982  0.126-  85 3.00 104 3.01
 268  0.276  0.982  0.376-  86 3.00 105 3.01
 269  0.025  0.483  0.126-  87 3.00 108 3.01
 270  0.026  0.982  0.626-  88 3.01 100 3.01
 271  0.276  0.982  0.876- 109 3.01  89 3.01
 272  0.526  0.982  0.126-  90 3.00 110 3.01
 273  0.776  0.982  0.376-  91 3.00  99 3.01
 274  0.026  0.483  0.626-  92 3.01 102 3.01
 275  0.276  0.482  0.876- 111 3.00  93 3.01
 276  0.526  0.483  0.126- 293 3.00 112 3.01
 277  0.777  0.481  0.380-  94 2.80 101 3.13
 278  0.526  0.982  0.626-  95 3.01 106 3.01
 279  0.776  0.982  0.876- 103 3.00  96 3.01
 280  0.776  0.482  0.873- 107 2.80  98 3.16
 281  0.388  0.375  0.357-
 282  0.629  0.367  0.601-
 283  0.605  0.626  0.388-
 284  0.353  0.625  0.636-
 285  0.396  0.375  0.615-
 286  0.643  0.375  0.364-
 287  0.611  0.631  0.649-
 288  0.364  0.625  0.396-
 289  0.250  0.250  0.250- 147 2.99 129 3.00 235 3.00 244 3.01 211 3.01 309 3.01
 290  0.500  0.249  0.500- 148 2.98 245 2.99 212 2.99 308 3.00 300 3.01 313 3.02
 291  0.500  0.250  0.250- 119 2.98 206 3.00 235 3.00 303 3.01 245 3.01 216 3.01
 292  0.250  0.250  0.500- 114 2.99 309 3.00 228 3.01 304 3.01 240 3.01 212 3.01
 293  0.500  0.501  0.250- 123 2.99 303 2.99 179 2.99 276 3.00 307 3.02 316 3.03
 294  0.250  0.500  0.500- 304 2.99 116 2.99 319 3.00 186 3.01 172 3.01 317 3.03
[...]
   0.313E+02 -.358E+01 0.114E+02   -.312E+02 0.356E+01 -.115E+02   -.112E+00 0.208E-01 0.811E-01   -.157E-03 -.252E-03 -.399E-03
   0.333E+02 0.600E+01 0.147E+02   -.332E+02 -.595E+01 -.148E+02   -.941E-01 -.354E-01 0.691E-01   -.331E-03 0.320E-03 -.253E-03
   0.286E+02 0.883E+00 0.133E+02   -.285E+02 -.868E+00 -.134E+02   -.767E-01 -.964E-02 0.608E-01   -.168E-03 -.667E-04 -.134E-03
   0.271E+02 0.191E+01 0.103E+02   -.270E+02 -.189E+01 -.104E+02   -.716E-01 -.143E-01 0.779E-01   -.553E-04 -.396E-04 0.279E-04
   0.287E+02 0.627E+01 0.919E+01   -.287E+02 -.623E+01 -.929E+01   -.775E-01 -.275E-01 0.905E-01   -.516E-03 0.525E-04 -.571E-04
   0.509E+02 -.241E+02 0.336E+02   -.508E+02 0.241E+02 -.336E+02   -.878E-01 0.658E-01 0.404E-01   -.353E-03 -.233E-03 0.335E-03
   0.291E+02 -.241E+01 0.157E+02   -.290E+02 0.239E+01 -.158E+02   -.907E-01 0.120E-01 0.433E-01   0.152E-03 -.226E-03 -.179E-03
   0.264E+02 -.314E+01 0.100E+02   -.263E+02 0.312E+01 -.101E+02   -.541E-01 0.204E-01 0.780E-01   -.229E-04 -.111E-03 -.230E-03
   0.249E+02 0.426E+01 0.958E+01   -.248E+02 -.423E+01 -.968E+01   -.634E-01 -.242E-01 0.839E-01   0.101E-04 -.695E-05 -.987E-04
   0.232E+02 0.653E+01 0.129E+02   -.231E+02 -.649E+01 -.130E+02   -.474E-01 -.312E-01 0.688E-01   -.117E-03 0.139E-03 -.655E-04
   0.110E+02 -.151E+02 0.140E+02   -.110E+02 0.150E+02 -.141E+02   -.779E-02 0.134E+00 0.879E-01   0.260E-03 0.152E-03 0.338E-03
   -.269E+02 -.123E+01 0.131E+02   0.268E+02 0.123E+01 -.132E+02   0.672E-01 0.393E-02 0.639E-01   -.307E-03 0.599E-05 -.180E-03
   -.290E+02 -.210E+01 0.103E+02   0.290E+02 0.208E+01 -.104E+02   0.867E-01 0.143E-01 0.983E-01   0.109E-03 -.195E-03 -.653E-04
   -.265E+02 0.206E+01 0.137E+02   0.264E+02 -.204E+01 -.137E+02   0.716E-01 -.166E-01 0.511E-01   -.246E-03 0.166E-03 0.548E-04
   -.268E+02 -.205E+01 0.139E+02   0.267E+02 0.204E+01 -.139E+02   0.632E-01 0.270E-02 0.620E-01   0.141E-03 0.131E-03 -.107E-03
   -.294E+02 -.213E+01 0.111E+02   0.293E+02 0.212E+01 -.112E+02   0.907E-01 0.866E-02 0.802E-01   0.285E-03 -.883E-04 -.969E-04
   -.296E+02 -.229E+01 0.988E+01   0.295E+02 0.228E+01 -.996E+01   0.859E-01 0.103E-01 0.829E-01   0.152E-03 0.172E-04 -.207E-03
   -.238E+02 -.635E+01 0.140E+02   0.237E+02 0.632E+01 -.141E+02   0.565E-01 0.353E-01 0.543E-01   0.386E-03 -.314E-03 0.198E-04
   -.263E+02 0.345E+01 0.182E+02   0.262E+02 -.344E+01 -.182E+02   0.723E-01 -.733E-02 0.249E-01   0.160E-03 0.158E-03 0.227E-03
   -.329E+02 0.354E+01 0.111E+02   0.328E+02 -.352E+01 -.112E+02   0.103E+00 -.231E-01 0.839E-01   0.257E-03 0.633E-05 -.122E-03
   -.311E+02 0.471E+01 0.571E+01   0.310E+02 -.461E+01 -.584E+01   0.155E+00 -.880E-01 0.130E+00   0.337E-03 0.902E-04 -.788E-04
   -.811E+01 0.156E+02 0.153E+02   0.818E+01 -.155E+02 -.153E+02   -.582E-01 -.149E+00 0.265E-01   0.430E-03 0.365E-03 0.131E-04
   -.320E+02 -.530E+01 0.870E+01   0.319E+02 0.528E+01 -.877E+01   0.832E-01 0.152E-01 0.708E-01   0.234E-03 -.310E-03 -.107E-03
   -.274E+02 -.580E+01 0.172E+02   0.273E+02 0.576E+01 -.172E+02   0.759E-01 0.345E-01 0.381E-01   0.277E-04 -.143E-03 -.659E-04
   -.269E+02 0.115E+02 0.302E+02   0.269E+02 -.114E+02 -.302E+02   0.635E-01 -.105E+00 -.569E-01   -.337E-03 -.130E-03 -.362E-05
   0.680E+01 0.118E+02 -.128E+01   -.685E+01 -.121E+02 0.131E+01   0.385E-01 0.289E+00 -.272E-01   0.262E-03 0.458E-04 -.156E-03
   0.484E+01 0.106E+02 0.897E+00   -.500E+01 -.108E+02 -.746E+00   0.140E+00 0.213E+00 -.158E+00   0.397E-03 0.338E-03 -.573E-04
   0.453E+01 -.105E+02 -.647E+01   -.460E+01 0.108E+02 0.655E+01   0.797E-01 -.324E+00 -.896E-01   0.389E-03 -.426E-03 -.153E-03
   0.108E+02 -.121E+02 0.776E+01   -.110E+02 0.125E+02 -.793E+01   0.196E+00 -.418E+00 0.158E+00   0.535E-03 -.467E-03 0.238E-03
[...]
   -.552E+01 0.444E+01 -.163E+02   0.558E+01 -.461E+01 0.161E+02   -.569E-01 0.161E+00 0.191E+00   -.503E-03 0.238E-03 0.157E-03
   0.165E+02 -.170E+02 0.144E+02   -.167E+02 0.172E+02 -.147E+02   0.144E+00 -.182E+00 0.225E+00   -.510E-04 0.421E-03 0.829E-04
   -.213E+02 -.221E+02 -.265E+02   0.215E+02 0.221E+02 0.267E+02   -.144E+00 -.100E+00 -.154E+00   0.179E-03 -.270E-03 0.438E-04
   -.221E+02 -.211E+02 -.266E+02   0.223E+02 0.213E+02 0.268E+02   -.208E+00 -.170E+00 -.233E+00   -.109E-03 -.262E-03 -.140E-03
   0.230E+02 0.241E+02 -.307E+02   -.232E+02 -.243E+02 0.309E+02   0.208E+00 0.180E+00 -.226E+00   -.212E-03 0.787E-05 -.393E-04
   0.182E+02 0.236E+02 -.289E+02   -.185E+02 -.238E+02 0.291E+02   0.216E+00 0.188E+00 -.231E+00   0.207E-03 0.558E-04 -.957E-04
   -.229E+02 -.231E+02 0.241E+02   0.231E+02 0.233E+02 -.244E+02   -.199E+00 -.183E+00 0.236E+00   -.196E-03 -.254E-03 -.548E-04
   -.245E+02 -.271E+02 0.194E+02   0.248E+02 0.272E+02 -.196E+02   -.190E+00 -.141E+00 0.248E+00   -.212E-03 -.379E-03 -.514E-05
   0.180E+02 0.241E+02 0.205E+02   -.182E+02 -.243E+02 -.207E+02   0.174E+00 0.188E+00 0.247E+00   -.905E-04 0.371E-04 -.724E-04
   0.185E+02 0.523E+02 0.233E+02   -.187E+02 -.525E+02 -.235E+02   0.167E+00 0.205E+00 0.194E+00   -.137E-03 0.168E-03 -.147E-03
   0.282E+02 -.193E+02 -.344E+02   -.285E+02 0.195E+02 0.346E+02   0.234E+00 -.182E+00 -.199E+00   0.276E-04 0.281E-03 -.229E-03
   0.175E+02 -.167E+02 -.308E+02   -.178E+02 0.168E+02 0.310E+02   0.250E+00 -.174E+00 -.198E+00   0.826E-04 0.312E-03 0.471E-04
   -.491E+02 0.937E+01 -.536E+02   0.494E+02 -.952E+01 0.539E+02   -.229E+00 0.140E+00 -.276E+00   0.268E-03 0.233E-03 0.249E-03
   -.224E+02 0.173E+02 -.287E+02   0.226E+02 -.175E+02 0.290E+02   -.204E+00 0.182E+00 -.227E+00   -.612E-04 0.195E-03 -.167E-03
   -.773E+00 0.581E+01 -.101E+01   -.205E-11 0.146E-11 -.497E-12   0.719E+00 -.602E+01 0.709E-01   -.716E-03 0.925E-03 0.112E-02

 POSITION                                       TOTAL-FORCE (eV/Angst)
      8.96542     20.59318     20.03236        -0.003793     -0.000971      0.001046
     -7.87307     20.59203     11.95677        -0.004426     -0.000079      0.002432
      9.03555      8.80214     20.06351        -0.004841     -0.002846      0.001414
     -7.86660      8.82429     11.96984        -0.004331      0.000261      0.001241
      0.54059     20.59933     28.11755        -0.004676     -0.000258      0.002340
      0.54830     20.59288      3.88178        -0.004529     -0.000395      0.001127
      0.54644     20.59220     11.94835        -0.004004     -0.000164      0.002145
      0.54217     20.60303     20.03576        -0.004275     -0.001605      0.000514
      0.59109      8.77766     28.17051        -0.004266      0.004332      0.002212
      0.54516      8.82577      3.87613        -0.004354     -0.000284      0.002088
     -7.88211     20.59586     20.03790        -0.004238     -0.000000      0.001322
      8.96702     20.59498     11.95488        -0.004412     -0.000806      0.002370
     -7.86974      8.82335     20.03733        -0.003681     -0.000341      0.001539
      8.95988      8.80498     11.94291        -0.003709     -0.000297      0.002154
     -4.75085      2.94036      7.91790         0.004270      0.000359      0.001860
     -4.75375      2.94453     15.99707         0.004151      0.000186      0.000422
     -4.77269     14.71506      7.92031         0.003928     -0.000072      0.001510
    -13.17568      2.94065     16.00693         0.004100     -0.000027      0.001546
      3.66228      2.94353      7.91450         0.003946      0.000307      0.001705
      3.67309      2.93645     15.98921         0.003375      0.000291      0.002095
      3.66001      2.94169     24.06536         0.003703     -0.000081      0.002369
    -13.17371     14.71144     15.98660         0.004690      0.000933      0.000605
      3.66299     14.71241      7.91105         0.003434     -0.000415      0.001624
      3.91006     14.88189     24.30362         0.001502      0.002886      0.004122
     -4.75668      2.94043     24.07133         0.004114     -0.000452      0.001522
     12.08320      2.94476     15.99550         0.004504     -0.000036      0.001842
     -4.81137     14.73771     24.06517         0.004362     -0.001813      0.005710
     12.12342     14.72781     16.05239         0.003686      0.000216      0.001881
     13.17384     20.59347     16.32671        -0.003907      0.000073     -0.001321
     -3.65786     20.59455      8.25535        -0.004094     -0.000377     -0.001453
     13.19008      8.81866     16.34498        -0.004444     -0.000070     -0.001737
     -3.65345      8.82296      8.26022        -0.003642      0.000708     -0.002791
      4.76208     20.61312     24.40155        -0.004812      0.000990     -0.001475
    -12.07651     20.59627     16.34872        -0.003383     -0.000639     -0.001066
      4.75344     20.59313      8.24885        -0.003931     -0.000556     -0.002317
      4.75847     20.59368     16.32747        -0.005523      0.000159     -0.001786
      4.81552      8.78582     24.49523        -0.002828     -0.000410     -0.000025
    -12.07665      8.82015     16.33604        -0.004211      0.000552     -0.001151
      4.75235      8.82635      8.25349        -0.003323      0.000349     -0.002701
     -3.66656     20.59586     16.32380        -0.003771     -0.000523     -0.002025
     -3.66522     20.59405     24.41759        -0.004584      0.000053     -0.001921
     -3.71072      8.80921     24.35110        -0.003022     -0.001489     -0.001830
     -0.54500      2.94218      4.21741         0.004143      0.000011     -0.001432
     -0.54517      2.93857     12.28097         0.004135     -0.000485     -0.001368
     -0.54072     14.71105      4.21243         0.003813      0.000981     -0.001891
     -8.96031      2.94152     12.29562         0.003855      0.000075     -0.002023
     -8.96867      2.94199     20.36834         0.004282     -0.000315     -0.001987
      7.87201      2.94283     12.29503         0.003883     -0.000147     -0.003051
      7.88232      2.94442     20.36982         0.004645     -0.000646     -0.002376
     -8.95745     14.71290     12.29860         0.004820     -0.000046     -0.001119
     -8.96845     14.70885     20.36402         0.004347     -0.000098     -0.000793
      7.84323     14.73579     12.27160         0.004416      0.000349     -0.000732
      7.85024     14.77458     20.40443         0.001686     -0.000982      0.000926
     -0.56126      2.92747     20.37055         0.003520     -0.000821     -0.001773
     -0.54666      2.94415     28.44857         0.004437      0.000013     -0.001526
     -0.52658     14.74429     28.43978         0.003592      0.000177     -0.000901
      8.42254     17.65175     16.15553         0.000355     -0.000076      0.000005
     -8.40151     17.67842      8.08634         0.000304      0.001886     -0.000281
      8.41723      5.89433     16.16125         0.000225      0.001125      0.000480
     -8.41464      5.87942      8.08586         0.002070     -0.000658      0.000653
[...]
     -5.88949     11.34815     17.76238         0.005013      0.000297      0.001000
      2.48536     11.33202     17.86549         0.006211     -0.000499      0.000597
      1.71692     12.19500     13.77001        -0.003881     -0.001424     -0.001549
     -1.75440      6.20462     18.55342         0.004346     -0.000911     -0.002203
     -1.68995      6.31130     10.53601         0.003860      0.002125     -0.004511
      5.90155     17.21132     14.57753        -0.004130      0.003133     -0.003997
     -2.51510     17.22023     14.57604        -0.002805      0.001801     -0.005209
     -5.90975      6.30553     17.75408         0.006525      0.000107      0.002625
      2.52380      6.28792     17.74600         0.005704      0.002774      0.004088
      1.69297     17.21887     13.72110        -0.003057      0.001078      0.001246
      1.70864     17.23050     21.80294        -0.005146      0.000479      0.002851
      5.89908     12.21466     14.59894        -0.005141     -0.000768     -0.003586
     -2.51629     12.17807     14.59569        -0.003032     -0.000642     -0.003226
     -1.61243     11.41471     18.70951         0.001998     -0.000691     -0.007816
     -1.68952     11.34341     10.53923         0.003264     -0.000509     -0.004060
    total drift:                               -0.055435     -0.213193     -0.935470

  FREE ENERGIE OF THE ION-ELECTRON SYSTEM (eV)
  free  energy   TOTEN  =    -11418.47609974 eV

  energy  without entropy=   -11418.47609974  energy(sigma->0) =   -11418.47609974

 d Force = 0.5026218E-03[ 0.453E-03, 0.553E-03]  d Energy = 0.5086267E-03-0.600E-05
 d Force = 0.4023265E+00[ 0.400E+00, 0.404E+00]  d Ewald  = 0.4023296E+00-0.314E-05

 stress matrix after NEB project (eV)
    -14.84964      0.25744      0.59177
      0.25740    -16.81610      0.63339
      0.59177      0.63338    -20.35379
  FORCES: max atom, RMS     0.009572    0.004954
  FORCE total and by dimension    0.088483    0.009052
  Stress total and by dimension   30.318392   20.353787
 Steepest descent step on ions:
 trial-energy change:   -0.000509  1 .order   -0.000503   -0.000553   -0.000453
  (g-gl).g = 0.553E-03      g.g   = 0.553E-03  gl.gl    = 0.000E+00
 g(Force)  = 0.553E-03   g(Stress)= 0.000E+00 ortho     = 0.000E+00
 gamma     =   0.00000
 trial     =   1.00000
 opt step  =   3.12909  (harmonic =   5.53234) maximal distance =0.00154319
 next E    =-11418.476640   (d E  =  -0.00105)

 reached required accuracy - stopping structural energy minimisation

 total charge

# of ion       s       p       d       tot
    1        1.786   4.719   0.019   6.523
    2        1.786   4.719   0.019   6.523
    3        1.786   4.719   0.019   6.524
    4        1.786   4.719   0.019   6.523
    5        1.786   4.719   0.019   6.523
    6        1.786   4.719   0.019   6.523
    7        1.786   4.719   0.019   6.523
    8        1.786   4.719   0.019   6.523
    9        1.786   4.719   0.019   6.524
   10        1.786   4.719   0.019   6.523
   11        1.786   4.719   0.019   6.523
   12        1.786   4.719   0.019   6.523
   13        1.786   4.719   0.019   6.523
   14        1.786   4.719   0.019   6.523
   15        1.786   4.719   0.019   6.523
   16        1.786   4.719   0.019   6.523
   17        1.786   4.719   0.018   6.522
   18        1.786   4.719   0.019   6.523
   19        1.786   4.719   0.019   6.523
   20        1.786   4.719   0.019   6.524
   21        1.786   4.719   0.019   6.524
   22        1.786   4.719   0.019   6.523
   23        1.786   4.719   0.019   6.524
   24        1.786   4.719   0.019   6.524
   25        1.786   4.719   0.019   6.523
   26        1.786   4.719   0.019   6.523
   27        1.786   4.719   0.019   6.524
   28        1.786   4.719   0.019   6.523
   29        1.786   4.719   0.019   6.523
   30        1.786   4.719   0.019   6.524
   31        1.786   4.719   0.019   6.524
   32        1.786   4.719   0.019   6.524
   33        1.786   4.719   0.019   6.524
   34        1.786   4.719   0.019   6.524
   35        1.786   4.719   0.019   6.523
   36        1.786   4.719   0.019   6.524
   37        1.786   4.719   0.020   6.525
   38        1.786   4.719   0.019   6.523
   39        1.786   4.719   0.019   6.523
   40        1.786   4.719   0.019   6.524
   41        1.786   4.719   0.019   6.524
   42        1.786   4.719   0.018   6.523
   43        1.786   4.719   0.019   6.524
   44        1.786   4.719   0.019   6.523
   45        1.786   4.719   0.019   6.523
   46        1.786   4.719   0.019   6.524
   47        1.786   4.719   0.019   6.524
   48        1.786   4.719   0.019   6.523
   49        1.786   4.719   0.019   6.523
   50        1.786   4.719   0.019   6.523
   51        1.786   4.719   0.019   6.523
   52        1.786   4.719   0.019   6.524
   53        1.786   4.718   0.019   6.523
   54        1.786   4.719   0.019   6.524
   55        1.786   4.719   0.019   6.523
   56        1.786   4.719   0.018   6.522
   57        1.554   0.415   9.833  11.802
   58        1.554   0.419   9.834  11.807
   59        1.554   0.414   9.833  11.801
   60        1.554   0.416   9.833  11.804
[...]
  305        1.614   3.283   0.006   4.903
  306        1.614   3.282   0.006   4.902
  307        1.614   3.283   0.006   4.903
  308        1.614   3.288   0.006   4.909
  309        1.614   3.283   0.006   4.903
  310        1.614   3.283   0.006   4.903
  311        1.614   3.283   0.006   4.903
  312        1.614   3.284   0.006   4.904
  313        1.614   3.285   0.006   4.905
  314        1.614   3.283   0.006   4.903
  315        1.614   3.284   0.006   4.904
  316        1.614   3.283   0.006   4.902
  317        1.614   3.282   0.006   4.902
  318        1.614   3.283   0.006   4.902
  319        1.614   3.283   0.006   4.903
tot        522.017 955.935 631.6812109.633