 vasp.5.4.4.18Apr17-6-g9f103f2a35 (build Jun 22 2020 09:27:21) complex

 INCAR:
 POTCAR:    PAW_PBE Cs_sv 08Apr2002
 POTCAR:    PAW_PBE Pb_d 06Sep2000
 POTCAR:    PAW_PBE Br 06Sep2000
 POTCAR:    PAW_PBE Cs_sv 08Apr2002
   VRHFIN =Cs: 5s5p6s

   TITEL  = PAW_PBE Cs_sv 08Apr2002
   POMASS =  132.900; ZVAL   =    9.000    mass and valenz
   ENMAX  =  220.318; ENMIN  =  165.238 eV

 POTCAR:    PAW_PBE Pb_d 06Sep2000
   VRHFIN =Pb:

   TITEL  = PAW_PBE Pb_d 06Sep2000
   POMASS =  207.200; ZVAL   =   14.000    mass and valenz
   ENMAX  =  237.835; ENMIN  =  178.376 eV

 POTCAR:    PAW_PBE Br 06Sep2000
   VRHFIN =Br: s2p5

   TITEL  = PAW_PBE Br 06Sep2000
   POMASS =   79.904; ZVAL   =    7.000    mass and valenz
   ENMAX  =  216.285; ENMIN  =  162.214 eV

 Optimization of the real space projectors (new method)

 maximal supplied QI-value         = 15.12
 optimisation between [QCUT,QGAM] = [  8.77, 17.69] = [ 21.53, 87.61] Ry
 Optimized for a Real-space Cutoff    1.85 Angstroem

   l    n(q)    QCUT    max X(q) W(low)/X(q) W(high)/X(q)  e(spline)
   0     10     8.768    25.322    0.81E-04    0.51E-04    0.48E-06
   0     10     8.768    99.187    0.78E-04    0.50E-04    0.47E-06
   1      9     8.768    11.761    0.21E-03    0.20E-03    0.37E-06
   1      9     8.768     8.275    0.24E-03    0.22E-03    0.41E-06
   2      9     8.768     3.829    0.23E-04    0.15E-03    0.18E-06
 Optimization of the real space projectors (new method)

[...]

   l    n(q)    QCUT    max X(q) W(low)/X(q) W(high)/X(q)  e(spline)
   2      7     8.768     3.846    0.48E-04    0.11E-03    0.11E-06
   2      7     8.768     8.593    0.20E-03    0.22E-04    0.24E-06
   0      8     8.768    20.082    0.68E-04    0.88E-04    0.41E-07
   0      8     8.768     8.597    0.89E-04    0.13E-03    0.59E-07
   1      8     8.768    33.223    0.15E-03    0.53E-04    0.87E-07
   1      8     8.768    15.899    0.14E-03    0.44E-04    0.78E-07
 Optimization of the real space projectors (new method)

 maximal supplied QI-value         = 17.95
 optimisation between [QCUT,QGAM] = [  8.80, 17.59] = [ 21.67, 86.68] Ry
 Optimized for a Real-space Cutoff    1.59 Angstroem

   l    n(q)    QCUT    max X(q) W(low)/X(q) W(high)/X(q)  e(spline)
   0      8     8.797   175.082    0.82E-04    0.14E-03    0.89E-07
   0      8     8.797   174.004    0.79E-04    0.14E-03    0.86E-07
   1      8     8.797    54.315    0.16E-03    0.14E-04    0.30E-06
   1      8     8.797    42.441    0.16E-03    0.14E-04    0.30E-06
   2      7     8.797     3.596    0.92E-04    0.15E-03    0.85E-07
  PAW_PBE Cs_sv 08Apr2002               :
  PAW_PBE Pb_d 06Sep2000                :
  PAW_PBE Br 06Sep2000                  :

 POSCAR: Cs4 Pb4 Br12
  positions in direct lattice
  velocities in cartesian coordinates

 METAGGA = SCAN     LMAXTAU =  6    LMIXTAU =  F

 VTST: version 3.2, (02/03/18)

 CHAIN: initializing optimizer

 OPT: Using VASP Conjugate-Gradient optimizer
 CHAIN: Read ICHAIN            0

 POSCAR: Cs4 Pb4 Br12
  positions in direct lattice
  velocities in cartesian coordinates

 ion  position               nearest neighbor table
   1  0.561  0.018  0.750-
   2  0.439  0.982  0.250-
   3  0.061  0.482  0.750-
   4  0.939  0.518  0.250-
   5  0.000  0.000  0.000-  13 2.99  14 2.99   9 3.00  11 3.00  19 3.01  17 3.01
   6  0.000  0.000  0.500-  13 2.99  14 2.99  10 3.00  12 3.00  20 3.01  18 3.01
   7  0.500  0.500  0.000-  16 2.99  15 2.99  17 3.00  19 3.00  11 3.01   9 3.01
   8  0.500  0.500  0.500-  16 2.99  15 2.99  18 3.00  20 3.00  12 3.01  10 3.01
   9  0.796  0.299  0.963-   5 3.00   7 3.01
  10  0.796  0.299  0.537-   6 3.00   8 3.01
  11  0.204  0.701  0.037-   5 3.00   7 3.01
  12  0.204  0.701  0.463-   6 3.00   8 3.01
  13  0.993  0.930  0.750-   5 2.99   6 2.99
  14  0.007  0.070  0.250-   5 2.99   6 2.99
  15  0.493  0.570  0.750-   7 2.99   8 2.99
  16  0.507  0.430  0.250-   7 2.99   8 2.99
  17  0.704  0.799  0.037-   7 3.00   5 3.01
  18  0.704  0.799  0.463-   8 3.00   6 3.01
  19  0.296  0.201  0.963-   7 3.00   5 3.01
  20  0.296  0.201  0.537-   8 3.00   6 3.01

  LATTYP: Found a simple orthorhombic cell.
 ALAT       =     8.1174277716
 B/A-ratio  =     1.0356814452
 C/A-ratio  =     1.4465652981

  Lattice vectors:

 A1 = (   5.7398882231,  -5.7398882231,   0.0000000000)
 A2 = (   5.9446957300,   5.9446957300,   0.0000000000)
 A3 = (  -0.0000000000,   0.0000000000,  11.7423893245)

Analysis of symmetry for initial positions (statically):
 Subroutine PRICEL returns:
 Original cell was already a primitive cell.

 Routine SETGRP: Setting up the symmetry group for a
 simple orthorhombic supercell.

 Subroutine GETGRP returns: Found  8 space group operations
 (whereof  2 operations were pure point group operations)
 out of a pool of  8 trial point group operations.

The static configuration has the point symmetry S_2 .
 The point group associated with its full space group is D_2h.

Analysis of symmetry for dynamics (positions and initial velocities):
 Subroutine PRICEL returns:
 Original cell was already a primitive cell.

 Routine SETGRP: Setting up the symmetry group for a
 simple orthorhombic supercell.

 Subroutine GETGRP returns: Found  8 space group operations
 (whereof  2 operations were pure point group operations)
 out of a pool of  8 trial point group operations.

The dynamic configuration has the point symmetry S_2 .
 The point group associated with its full space group is D_2h.

 Subroutine INISYM returns: Found  8 space group operations
 (whereof  2 operations are pure point group operations),
 and found     1 'primitive' translations

 KPOINTS: 1x1x1

Automatic generation of k-mesh.
Space group operators:
 irot       det(A)        alpha          n_x          n_y          n_z        tau_x        tau_y        tau_z
    1     1.000000     0.000000     1.000000     0.000000     0.000000    -0.000000     0.000000     0.000000
    2    -1.000000     0.000000     1.000000     0.000000     0.000000    -0.000000     0.000000     0.000000
    3     1.000000   180.000000     0.000000     0.000000     1.000000    -0.000000     0.000000    -0.500000
    4    -1.000000   180.000000     0.000000     0.000000     1.000000    -0.000000     0.000000    -0.500000
    5     1.000000   180.000000     0.707107     0.707107     0.000000    -0.500000    -0.500000    -0.500000
    6    -1.000000   180.000000     0.707107     0.707107     0.000000    -0.500000    -0.500000    -0.500000
    7     1.000000   180.000000     0.707107    -0.707107     0.000000    -0.500000    -0.500000     0.000000
    8    -1.000000   180.000000     0.707107    -0.707107     0.000000    -0.500000    -0.500000     0.000000

 Subroutine IBZKPT returns following result:

 Found      8 irreducible k-points:

 Following reciprocal coordinates:
            Coordinates               Weight
  0.000000  0.000000  0.000000      1.000000
  0.333333  0.000000  0.000000      2.000000
  0.000000  0.333333  0.000000      2.000000
  0.333333  0.333333  0.000000      4.000000
  0.000000  0.000000  0.500000      1.000000
  0.333333  0.000000  0.500000      2.000000
  0.000000  0.333333  0.500000      2.000000
  0.333333  0.333333  0.500000      4.000000

 Following cartesian coordinates:
            Coordinates               Weight
 -0.000000  0.000000 -0.000000      1.000000
 -0.028036 -0.028036 -0.000000      2.000000
 -0.029037  0.029037 -0.000000      2.000000
 -0.057073  0.001000 -0.000000      4.000000
 -0.000000  0.000000 -0.042581      1.000000
 -0.028036 -0.028036 -0.042581      2.000000
 -0.029037  0.029037 -0.042581      2.000000
 -0.057073  0.001000 -0.042581      4.000000

 SYSTEM =  CsPbBr3 cubic bulk
 POSCAR =  Cs4 Pb4 Br12

 Startparameter for this run:
   NWRITE =      2    write-flag & timer
   PREC   = accura    normal or accurate (medium, high low for compatibility)
   ISTART =      0    job   : 0-new  1-cont  2-samecut
   ICHARG =      2    charge: 1-file 2-atom 10-const
   ISPIN  =      1    spin polarized calculation?
   LNONCOLLINEAR =      F non collinear calculations
   LSORBIT =      F    spin-orbit coupling
   INIWAV =      1    electr: 0-lowe 1-rand  2-diag
   LASPH  =      T    aspherical Exc in radial PAW
   METAGGA=      F    non-selfconsistent MetaGGA calc.

 Electronic Relaxation 1
   ENCUT  =  300.0 eV  22.05 Ry    4.70 a.u.  11.87 11.46 16.58*2*pi/ulx,y,z
   ENINI  =  300.0     initial cutoff
   ENAUG  =  503.9 eV  augmentation charge cutoff
   NELM   =    200;   NELMIN=  2; NELMDL=  0     # of ELM steps
   EDIFF  = 0.1E-05   stopping-criterion for ELM
   LREAL  =      T    real-space projection
   NLSPLINE    = F    spline interpolate recip. space projectors
   LCOMPAT=      F    compatible to vasp.4.4
   GGA_COMPAT  = T    GGA compatible to vasp.4.4-vasp.4.6
   LMAXPAW     = -100 max onsite density
   LMAXMIX     =    2 max onsite mixed and CHGCAR
   VOSKOWN=      0    Vosko Wilk Nusair interpolation
   ROPT   =   -0.00025  -0.00025  -0.00025
 Ionic relaxation
   EDIFFG = -.1E-01   stopping-criterion for IOM
   NSW    =      0    number of steps for IOM
   NBLOCK =      1;   KBLOCK =      1    inner block; outer block
   IBRION =     -1    ionic relax: 0-MD 1-quasi-New 2-CG
   NFREE  =      1    steps in history (QN), initial steepest desc. (CG)
   ISIF   =      3    stress and relaxation
   IWAVPR =     10    prediction:  0-non 1-charg 2-wave 3-comb
   ISYM   =      2    0-nonsym 1-usesym 2-fastsym
   LCORR  =      T    Harris-Foulkes like correction to forces

   POTIM  = 0.5000    time-step for ionic-motion
   TEIN   =    0.0    initial temperature
   TEBEG  =    0.0;   TEEND  =   0.0 temperature during run
   SMASS  =  -3.00    Nose mass-parameter (am)
   estimated Nose-frequenzy (Omega)   =  0.10E-29 period in steps =****** mass=  -0.162E-26a.u.
   SCALEE = 1.0000    scale energy and forces
   NPACO  =    256;   APACO  = 16.0  distance and # of slots for P.C.
   PSTRESS=    0.0 pullay stress

  Mass of Ions in am
   POMASS = 132.90207.20 79.90
  Ionic Valenz
   ZVAL   =   9.00 14.00  7.00
  Atomic Wigner-Seitz radii
  virtual crystal weights
   VCA    =   1.00  1.00  1.00
   NELECT =     176.0000    total number of electrons
   NUPDOWN=      -1.0000    fix difference up-down

 DOS related values:
   EMIN   =  10.00;   EMAX   =-10.00  energy-range for DOS
   EFERMI =   0.00
   ISMEAR =     0;   SIGMA  =   0.01  broadening in eV -4-tet -1-fermi 0-gaus

 Electronic relaxation 2 (details)
   IALGO  =     38    algorithm
   LDIAG  =      T    sub-space diagonalisation (order eigenvalues)
   LSUBROT=      F    optimize rotation matrix (better conditioning)
   TURBO    =      0    0=normal 1=particle mesh
   IRESTART =      0    0=no restart 2=restart with 2 vectors
   NREBOOT  =      0    no. of reboots
   NMIN     =      0    reboot dimension
   EREF     =   0.00    reference energy to select bands
   IMIX   =      4    mixing-type and parameters
     AMIX     =   0.40;   BMIX     =  1.00
     AMIX_MAG =   1.60;   BMIX_MAG =  1.00
     AMIN     =   0.10
     WC   =   100.;   INIMIX=   1;  MIXPRE=   1;  MAXMIX= -45

 Intra band minimization:
   WEIMIN = 0.0000     energy-eigenvalue tresh-hold
   EBREAK =  0.22E-08  absolut break condition
[...]

 eigenvalue-minimisations  :  2232
 total energy-change (2. order) :-0.1242541E+04  (-0.1193267E+04)
 number of electron     176.0000000 magnetization
 augmentation part      176.0000000 magnetization

[...]

 Broyden mixing:
  rms(total) = 0.70626E+00    rms(broyden)= 0.70600E+00
  rms(prec ) = 0.97656E+00
  weight for this iteration     100.00

[...]

 eigenvalues of (default mixing * dielectric matrix)
  average eigenvalue GAMMA=   1.1713
  1.1713

[...]

 eigenvalue-minimisations  :  1120
 total energy-change (2. order) : 0.1440166E-05  (-0.4780643E-08)
 number of electron     176.0000001 magnetization
 augmentation part       -2.3232612 magnetization

 Broyden mixing:
  rms(total) = 0.16933E-04    rms(broyden)= 0.15382E-04
  rms(prec ) = 0.18719E-04
  weight for this iteration     100.00

 eigenvalues of (default mixing * dielectric matrix)
  average eigenvalue GAMMA=   1.6872
  3.3497  3.0161  2.4605  2.0694  2.0694  1.1588  1.1588  1.1768  0.9721  0.9721
  0.9261  0.9168

[...]

--------------------------------------- Iteration      1(  18)  ---------------------------------------

 eigenvalue-minimisations  :  1112
 total energy-change (2. order) :-0.1654757E-07  (-0.3663538E-08)
 number of electron     176.0000001 magnetization
 augmentation part       -2.3232612 magnetization

 Free energy of the ion-electron system (eV)
  alpha Z        PSCENC =       450.25417147
  Ewald energy   TEWEN  =     -9233.66077751
  -Hartree energ DENC   =     -3664.97017268
  -exchange      EXHF   =         0.00000000
  -V(xc)+E(xc)   XCENC  =       481.48785494
  PAW double counting   =     11546.36838463   -12082.44188233
  entropy T*S    EENTRO =        -0.00000000
  eigenvalues    EBANDS =     -1502.23800406
  atomic energy  EATOM  =     13290.28009929
  Solvation  Ediel_sol  =         0.00000000
  free energy    TOTEN  =      -714.92032624 eV

  energy without entropy =     -714.92032624  energy(sigma->0) =     -714.92032624

 average (electrostatic) potential at core
  the test charge radii are     1.1312  1.1541  1.0178
  (the norm of the test charge is              1.0000)
       1 -55.2211       2 -55.2211       3 -55.2212       4 -55.2217       5-101.6304
       6-101.6304       7-101.6304       8-101.6304       9 -68.9674      10 -68.9674
      11 -68.9674      12 -68.9674      13 -68.9688      14 -68.9688      15 -68.9688
      16 -68.9688      17 -68.9674      18 -68.9674      19 -68.9674      20 -68.9674

 E-fermi :   0.5676     XC(G=0):  -8.0857     alpha+bet : -7.0638

 k-point     1 :       0.0000    0.0000    0.0000
  band No.  band energies     occupation
      1     -20.7530      2.00000
      2     -20.7513      2.00000
      3     -20.7491      2.00000
      4     -20.7480      2.00000
      5     -16.4523      2.00000
      6     -16.4426      2.00000
      7     -16.4423      2.00000
      8     -16.4265      2.00000
      9     -16.3935      2.00000
     10     -16.3615      2.00000
     11     -16.3556      2.00000
     12     -16.3555      2.00000
     13     -16.2929      2.00000
     14     -16.2924      2.00000
     15     -16.2918      2.00000
     16     -16.2914      2.00000
     17     -16.2913      2.00000
     18     -16.2910      2.00000
     19     -16.2904      2.00000
     20     -16.2900      2.00000
     21     -16.2846      2.00000
     22     -16.2841      2.00000
     23     -16.2833      2.00000
     24     -16.2829      2.00000
     25     -14.3232      2.00000
     26     -14.1404      2.00000
     27     -14.0090      2.00000
     28     -14.0033      2.00000
     29     -13.9962      2.00000
     30     -13.9852      2.00000
     31     -13.9847      2.00000
     32     -13.9770      2.00000
     33     -13.9417      2.00000
     34     -13.7266      2.00000
     35     -13.7261      2.00000
     36     -13.7207      2.00000
     37      -8.1505      2.00000
     38      -7.6481      2.00000
     39      -7.1961      2.00000
     40      -7.1836      2.00000
     41      -7.1827      2.00000
     42      -7.1826      2.00000
     43      -7.1589      2.00000
     44      -7.1588      2.00000
     45      -7.1550      2.00000
     46      -7.1501      2.00000
     47      -7.1431      2.00000
     48      -7.1403      2.00000
     49      -7.1255      2.00000
     50      -7.1188      2.00000
     51      -7.0983      2.00000
     52      -6.5151      2.00000
     53      -3.2827      2.00000
     54      -3.2543      2.00000
     55      -3.2278      2.00000
     56      -3.1450      2.00000
     57      -3.1251      2.00000
     58      -3.0726      2.00000
     59      -2.1114      2.00000
     60      -1.8974      2.00000
[...]
     98       5.9405      0.00000
     99       6.0797      0.00000
    100       6.0808      0.00000
    101       6.1598      0.00000
    102       6.2777      0.00000
    103       6.3641      0.00000
    104       6.3787      0.00000
    105       6.5500      0.00000
    106       6.5539      0.00000
    107       6.6163      0.00000
    108       6.7777      0.00000
    109       6.8472      0.00000
    110       6.8750      0.00000
    111       6.9442      0.00000
    112       7.0643      0.00000

[...]

 k-point     8 :       0.3333    0.3333    0.5000
  band No.  band energies     occupation
      1     -20.7508      2.00000
      2     -20.7507      2.00000
      3     -20.7498      2.00000
      4     -20.7497      2.00000
      5     -16.4301      2.00000
      6     -16.4301      2.00000
      7     -16.4174      2.00000
      8     -16.4174      2.00000
      9     -16.3933      2.00000
     10     -16.3933      2.00000
     11     -16.3773      2.00000
     12     -16.3773      2.00000
     13     -16.2923      2.00000
     14     -16.2923      2.00000
     15     -16.2920      2.00000
     16     -16.2920      2.00000
     17     -16.2907      2.00000
     18     -16.2907      2.00000
     19     -16.2906      2.00000
     20     -16.2906      2.00000
     21     -16.2839      2.00000
     22     -16.2839      2.00000
     23     -16.2836      2.00000
     24     -16.2836      2.00000
     25     -14.1762      2.00000
     26     -14.1762      2.00000
     27     -14.0911      2.00000
     28     -14.0911      2.00000
     29     -13.9928      2.00000
     30     -13.9928      2.00000
     31     -13.9093      2.00000
     32     -13.9093      2.00000
     33     -13.8209      2.00000
     34     -13.8209      2.00000
     35     -13.7886      2.00000
     36     -13.7886      2.00000
     37      -7.5742      2.00000
     38      -7.5742      2.00000
     39      -7.3308      2.00000
     40      -7.3308      2.00000
     41      -7.1711      2.00000
     42      -7.1711      2.00000
     43      -7.1552      2.00000
     44      -7.1552      2.00000
     45      -7.1404      2.00000
     46      -7.1404      2.00000
     47      -7.1353      2.00000
     48      -7.1353      2.00000
     49      -7.1301      2.00000
     50      -7.1301      2.00000
     51      -7.1079      2.00000
     52      -7.1079      2.00000
     53      -3.1144      2.00000
     54      -3.1144      2.00000
     55      -2.7592      2.00000
     56      -2.7592      2.00000
     57      -2.4948      2.00000
     58      -2.4948      2.00000
     59      -2.3662      2.00000
     60      -2.3662      2.00000
[...]
     98       5.0868      0.00000
     99       5.8046      0.00000
    100       5.8046      0.00000
    101       6.3385      0.00000
    102       6.3385      0.00000
    103       6.4747      0.00000
    104       6.4747      0.00000
    105       6.6445      0.00000
    106       6.6445      0.00000
    107       6.8059      0.00000
    108       6.8059      0.00000
    109       6.8775      0.00000
    110       6.8775      0.00000
    111       6.9936      0.00000
    112       6.9936      0.00000

 soft charge-density along one line, spin component           1
         0         1         2         3         4         5         6         7         8         9
 total charge-density along one line

------------------------ aborting loop because EDIFF is reached ----------------------------------------

 total charge

# of ion       s       p       d       tot
    1        1.786   4.719   0.018   6.523
    2        1.786   4.719   0.018   6.523
    3        1.786   4.719   0.018   6.523
    4        1.786   4.719   0.018   6.523
    5        1.553   0.420   9.833  11.807
    6        1.553   0.420   9.833  11.807
    7        1.553   0.420   9.833  11.807
    8        1.553   0.420   9.833  11.807
    9        1.613   3.295   0.006   4.914
   10        1.613   3.295   0.006   4.914
   11        1.613   3.295   0.006   4.914
   12        1.613   3.295   0.006   4.914
   13        1.614   3.287   0.006   4.907
   14        1.614   3.287   0.006   4.907
   15        1.614   3.286   0.006   4.907
   16        1.614   3.286   0.006   4.907
   17        1.615   3.271   0.006   4.893
   18        1.615   3.271   0.006   4.893
   19        1.615   3.271   0.006   4.893
   20        1.615   3.271   0.006   4.893
tot         32.727  59.964  39.481 132.172

  FORCE on cell =-STRESS in cart. coord.  units (eV):
  Direction    XX          YY          ZZ          XY          YZ          ZX
  Alpha Z   450.25417   450.25417   450.25417
  Ewald   -3112.85243 -3112.85243 -3007.98278    26.92074    -0.00000     0.00000
  Hartree  1201.09254  1201.09254  1262.78387    18.35334    -0.00000    -0.00000
  E(xc)    -738.99617  -738.92739  -738.90599     0.03832    -0.00000     0.00002
  Local   -1357.39130 -1357.39130 -1523.13349   -45.28413    -0.00000     0.00000
  n-local   899.70619   899.50838   900.25927     0.15701    -0.00000     0.00001
  augment   406.23453   406.23453   406.25276     0.16513     0.00001     0.00001
  Kinetic  2249.49848  2252.74693  2250.01864    -0.25377     0.00001     0.00000
  Fock        0.00000     0.00000     0.00000     0.00000     0.00000     0.00000
  Total      -0.89428    -0.89428    -0.45356     0.09672     0.00000     0.00000
  in kB      -1.78799    -1.78799    -0.90683     0.19337     0.00000     0.00000

 VOLUME and BASIS-vectors are now :
  energy-cutoff  :      300.00
  volume of cell :      801.35
      direct lattice vectors                 reciprocal lattice vectors
    -5.944695730 -5.944695730  0.000000000    -0.084108594 -0.084108594 -0.000000000
    -5.739888223  5.739888223  0.000000000    -0.087109710  0.087109710  0.000000000
     0.000000000  0.000000000-11.742389325    -0.000000000  0.000000000 -0.085161544

  length of vectors
     8.407069326  8.117427772 11.742389325     0.118947514  0.123191734  0.085161544

 FORCES acting on ions
    electron-ion (+dipol)            ewald-force                    non-local-force                 convergence-correction
   -.282E+02 -.104E+02 -.865E-06   0.282E+02 0.103E+02 0.711E-14   0.288E-01 0.803E-01 0.192E-22   -.370E-04 -.476E-05 0.303E-11
   0.282E+02 0.104E+02 0.865E-06   -.282E+02 -.103E+02 -.142E-13   -.288E-01 -.803E-01 0.153E-22   0.370E-04 0.476E-05 -.308E-11
   -.104E+02 -.282E+02 0.200E-06   0.103E+02 0.282E+02 0.142E-13   0.803E-01 0.288E-01 -.136E-22   -.476E-05 -.370E-04 0.119E-11
   0.104E+02 0.282E+02 -.200E-06   -.103E+02 -.282E+02 -.107E-13   -.803E-01 -.288E-01 -.113E-22   0.476E-05 0.370E-04 -.124E-11
   0.275E-10 0.265E-10 -.474E-11   0.409E-13 0.702E-13 -.124E-13   0.000E+00 0.000E+00 0.364E-23   0.579E-13 -.131E-12 0.821E-12
   0.187E-10 0.325E-10 -.357E-11   0.711E-13 0.497E-13 0.355E-14   0.000E+00 0.000E+00 0.179E-23   0.726E-14 -.931E-13 -.389E-12
   0.202E-10 0.309E-10 -.443E-11   -.284E-13 -.864E-13 0.995E-13   0.000E+00 0.000E+00 0.175E-24   0.716E-13 0.113E-12 0.774E-12
   0.234E-10 0.250E-10 0.192E-11   -.114E-12 -.746E-13 -.782E-13   0.000E+00 0.000E+00 -.601E-23   0.142E-12 0.697E-13 -.349E-12
   0.308E+02 -.377E+01 -.176E+02   -.311E+02 0.380E+01 0.178E+02   0.252E+00 -.202E-01 -.177E+00   -.688E-05 -.609E-05 0.235E-04
   0.308E+02 -.377E+01 0.176E+02   -.311E+02 0.380E+01 -.178E+02   0.252E+00 -.202E-01 0.177E+00   -.688E-05 -.609E-05 -.235E-04
   -.308E+02 0.377E+01 0.176E+02   0.311E+02 -.380E+01 -.178E+02   -.252E+00 0.202E-01 0.177E+00   0.688E-05 0.609E-05 -.235E-04
   -.308E+02 0.377E+01 -.176E+02   0.311E+02 -.380E+01 0.178E+02   -.252E+00 0.202E-01 -.177E+00   0.688E-05 0.609E-05 0.235E-04
   -.196E+02 0.334E+02 -.897E-06   0.198E+02 -.336E+02 0.107E-13   -.108E+00 0.238E+00 -.401E-22   -.683E-05 0.264E-04 0.186E-12
   0.196E+02 -.334E+02 0.897E-06   -.198E+02 0.336E+02 0.000E+00   0.108E+00 -.238E+00 -.894E-23   0.683E-05 -.264E-04 -.340E-12
   0.334E+02 -.196E+02 -.519E-06   -.336E+02 0.198E+02 -.355E-14   0.238E+00 -.108E+00 -.254E-22   0.264E-04 -.683E-05 0.182E-12
   -.334E+02 0.196E+02 0.519E-06   0.336E+02 -.198E+02 -.711E-14   -.238E+00 0.108E+00 0.244E-22   -.264E-04 0.683E-05 -.336E-12
   0.377E+01 -.308E+02 0.176E+02   -.380E+01 0.311E+02 -.178E+02   0.202E-01 -.252E+00 0.177E+00   0.609E-05 0.688E-05 -.235E-04
   0.377E+01 -.308E+02 -.176E+02   -.380E+01 0.311E+02 0.178E+02   0.202E-01 -.252E+00 -.177E+00   0.609E-05 0.688E-05 0.235E-04
   -.377E+01 0.308E+02 -.176E+02   0.380E+01 -.311E+02 0.178E+02   -.202E-01 0.252E+00 -.177E+00   -.609E-05 -.688E-05 0.235E-04
   -.377E+01 0.308E+02 0.176E+02   0.380E+01 -.311E+02 -.178E+02   -.202E-01 0.252E+00 0.177E+00   -.609E-05 -.688E-05 -.235E-04
   0.521E-09 0.497E-09 -.839E-10   0.164E-13 -.711E-14 0.142E-13   0.312E-16 0.000E+00 0.000E+00   0.308E-12 -.469E-13 0.803E-12

 POSITION                                       TOTAL-FORCE (eV/Angst)
     -3.44129     -3.23192     -8.80679        -0.004213     -0.002119      0.000000
     -8.24329      3.02711     -2.93560         0.004213      0.002119      0.000000
     -3.12951      2.40100     -8.80679        -0.002119     -0.004213      0.000000
     -8.55507     -2.60581     -2.93560         0.002119      0.004213      0.000000
      0.00000      0.00000      0.00000        -0.000000      0.000000      0.000000
      0.00000      0.00000     -5.87119        -0.000000      0.000000      0.000000
     -5.84229     -0.10240      0.00000        -0.000000      0.000000      0.000000
     -5.84229     -0.10240     -5.87119        -0.000000      0.000000      0.000000
     -6.44686     -3.01595    -11.30937        -0.000386      0.002015     -0.010032
     -6.44686     -3.01595     -6.30421        -0.000386      0.002015      0.010032
     -5.23772      2.81115     -0.43302         0.000386     -0.002015      0.010032
     -5.23772      2.81115     -5.43818         0.000386     -0.002015     -0.010032
    -11.24531     -0.56584     -8.80679         0.028292     -0.009755      0.000000
     -0.43927      0.36103     -2.93560        -0.028292      0.009755      0.000000
     -6.20332      0.33687     -8.80679        -0.009755      0.028292      0.000000
     -5.48126     -0.54167     -2.93560         0.009755     -0.028292      0.000000
     -8.77103      0.39976     -0.43302        -0.002015      0.000386      0.010032
     -8.77103      0.39976     -5.43818        -0.002015      0.000386     -0.010032
     -2.91355     -0.60457    -11.30937         0.002015     -0.000386     -0.010032
     -2.91355     -0.60457     -6.30421         0.002015     -0.000386      0.010032
    total drift:                                0.000000      0.000000     -0.000000

  FREE ENERGIE OF THE ION-ELECTRON SYSTEM (eV)
  free  energy   TOTEN  =      -714.92032624 eV

  energy  without entropy=     -714.92032624  energy(sigma->0) =     -714.92032624

 stress matrix after NEB project (eV)
     -0.89428      0.09672      0.00000
      0.09672     -0.89428      0.00000
      0.00000      0.00000     -0.45356
  FORCES: max atom, RMS     0.029927    0.015017
  FORCE total and by dimension    0.067158    0.028292
  Stress total and by dimension    1.350521    0.894282

 total charge

# of ion       s       p       d       tot
    1        1.786   4.719   0.018   6.523
    2        1.786   4.719   0.018   6.523
    3        1.786   4.719   0.018   6.523
    4        1.786   4.719   0.018   6.523
    5        1.553   0.420   9.833  11.807
    6        1.553   0.420   9.833  11.807
    7        1.553   0.420   9.833  11.807
    8        1.553   0.420   9.833  11.807
    9        1.613   3.295   0.006   4.914
   10        1.613   3.295   0.006   4.914
   11        1.613   3.295   0.006   4.914
   12        1.613   3.295   0.006   4.914
   13        1.614   3.287   0.006   4.907
   14        1.614   3.287   0.006   4.907
   15        1.614   3.286   0.006   4.907
   16        1.614   3.286   0.006   4.907
   17        1.615   3.271   0.006   4.893
   18        1.615   3.271   0.006   4.893
   19        1.615   3.271   0.006   4.893
   20        1.615   3.271   0.006   4.893
tot         32.727  59.964  39.481 132.172