 vasp.5.4.4.18Apr17-6-g9f103f2a35 (build Jun 22 2020 09:27:21) complex

 INCAR:
 POTCAR:    PAW_PBE Cs_sv 08Apr2002
 POTCAR:    PAW_PBE Pb_d 06Sep2000
 POTCAR:    PAW_PBE Br 06Sep2000
 POTCAR:    PAW_PBE Cs_sv 08Apr2002
   VRHFIN =Cs: 5s5p6s

   TITEL  = PAW_PBE Cs_sv 08Apr2002
   POMASS =  132.900; ZVAL   =    9.000    mass and valenz
   ENMAX  =  220.318; ENMIN  =  165.238 eV

   TITEL  = PAW_PBE Pb_d 06Sep2000
   POMASS =  207.200; ZVAL   =   14.000    mass and valenz
   ENMAX  =  237.835; ENMIN  =  178.376 eV

   TITEL  = PAW_PBE Br 06Sep2000
   POMASS =   79.904; ZVAL   =    7.000    mass and valenz
   ENMAX  =  216.285; ENMIN  =  162.214 eV

 Optimization of the real space projectors (new method)

 maximal supplied QI-value         = 15.12
 optimisation between [QCUT,QGAM] = [  8.77, 17.69] = [ 21.53, 87.61] Ry
 Optimized for a Real-space Cutoff    1.85 Angstroem

   l    n(q)    QCUT    max X(q) W(low)/X(q) W(high)/X(q)  e(spline)
   0     10     8.768    25.322    0.81E-04    0.51E-04    0.48E-06
   0     10     8.768    99.187    0.78E-04    0.50E-04    0.47E-06
   1      9     8.768    11.761    0.21E-03    0.20E-03    0.37E-06
   1      9     8.768     8.275    0.24E-03    0.22E-03    0.41E-06
   2      9     8.768     3.829    0.23E-04    0.15E-03    0.18E-06
 Optimization of the real space projectors (new method)

[...]

   l    n(q)    QCUT    max X(q) W(low)/X(q) W(high)/X(q)  e(spline)
   2      7     8.768     3.846    0.48E-04    0.11E-03    0.11E-06
   2      7     8.768     8.593    0.20E-03    0.22E-04    0.24E-06
   0      8     8.768    20.082    0.68E-04    0.88E-04    0.41E-07
   0      8     8.768     8.597    0.89E-04    0.13E-03    0.59E-07
   1      8     8.768    33.223    0.15E-03    0.53E-04    0.87E-07
   1      8     8.768    15.899    0.14E-03    0.44E-04    0.78E-07
 Optimization of the real space projectors (new method)

 maximal supplied QI-value         = 17.95
 optimisation between [QCUT,QGAM] = [  8.80, 17.59] = [ 21.67, 86.68] Ry
 Optimized for a Real-space Cutoff    1.59 Angstroem

   l    n(q)    QCUT    max X(q) W(low)/X(q) W(high)/X(q)  e(spline)
   0      8     8.797   175.082    0.82E-04    0.14E-03    0.89E-07
   0      8     8.797   174.004    0.79E-04    0.14E-03    0.86E-07
   1      8     8.797    54.315    0.16E-03    0.14E-04    0.30E-06
   1      8     8.797    42.441    0.16E-03    0.14E-04    0.30E-06
   2      7     8.797     3.596    0.92E-04    0.15E-03    0.85E-07
  PAW_PBE Cs_sv 08Apr2002               :
  PAW_PBE Pb_d 06Sep2000                :
  PAW_PBE Br 06Sep2000                  :

 POSCAR: Cs Pb Br
  positions in cartesian coordinates

 METAGGA = SCAN     LMAXTAU =  6    LMIXTAU =  F

 VTST: version 3.2, (02/03/18)

 CHAIN: initializing optimizer

 OPT: Using VASP Conjugate-Gradient optimizer
 CHAIN: Read ICHAIN            0

 POSCAR: Cs Pb Br
  positions in cartesian coordinates

 ion  position               nearest neighbor table
   1  0.272  0.250  0.208-
   2  0.811  0.244  0.776-
   3  0.875  0.732  0.298-
   4  0.280  0.791  0.793-
   5  0.274  0.281  0.734-
   6  0.787  0.195  0.323-
   7  0.719  0.785  0.826-
   8  0.324  0.776  0.332-
   9  0.006  0.972  0.027-  21 2.85  30 2.93  31 3.04  36 3.05  19 3.13  33 3.24
  10  0.530  0.018  0.505-  35 2.80  32 2.88  22 3.02  34 3.13  29 3.21  20 3.22
  11  0.496  0.070  0.016-  23 2.82  33 2.91  35 2.95  29 3.11  31 3.15  17 3.28
  12  0.046  0.959  0.532-  18 2.83  36 2.96  32 2.99  30 3.11  24 3.13  34 3.15
  13  0.518  0.526  0.041-  23 2.85  37 2.92  39 3.01  27 3.09  25 3.14  17 3.20
  14  0.064  0.493  0.472-  18 2.88  40 2.94  26 3.01  38 3.19  24 3.21  28 3.35
  15  0.011  0.484  0.983-  28 2.73  25 2.94  40 2.95  19 2.98  37 3.03  21 3.15
  16  0.553  0.545  0.538-  39 2.95  27 2.96  38 3.02  22 3.05  26 3.08  20 3.08
  17  0.499  0.796  0.067-  13 3.20  11 3.28
  18  0.080  0.722  0.558-  12 2.83  14 2.88
  19  0.980  0.237  0.031-  15 2.98   9 3.13
  20  0.580  0.287  0.508-  16 3.08  10 3.22
  21  0.070  0.739  0.044-   9 2.85  15 3.15
  22  0.504  0.788  0.616-  10 3.02  16 3.05
  23  0.566  0.291  0.078-  11 2.82  13 2.85
  24  0.047  0.224  0.513-  12 3.13  14 3.21
  25  0.261  0.454  0.990-  15 2.94  13 3.14
  26  0.811  0.509  0.507-  14 3.01  16 3.08
  27  0.580  0.592  0.292-  16 2.96  13 3.09
  28  0.009  0.467  0.750-  15 2.73  14 3.35
  29  0.581  0.091  0.768-  11 3.11  10 3.21
  30  0.080  0.983  0.270-   9 2.93  12 3.11
  31  0.754  0.006  0.077-   9 3.04  11 3.15
  32  0.294  0.020  0.568-  10 2.88  12 2.99
  33  0.252  0.073  0.957-  11 2.91   9 3.24
  34  0.779  0.921  0.505-  10 3.13  12 3.15
  35  0.496  0.051  0.269-  10 2.80  11 2.95
  36  0.961  0.979  0.767-  12 2.96   9 3.05
  37  0.758  0.547  0.985-  13 2.92  15 3.03
  38  0.331  0.451  0.434-  16 3.02  14 3.19
  39  0.506  0.519  0.783-  16 2.95  13 3.01
  40  0.986  0.458  0.232-  14 2.94  15 2.95

  LATTYP: Found a base centered orthorhombic cell.
 ALAT       =    16.1559620000
 B/A-ratio  =     1.0423418921
 C/A-ratio  =     0.7281403608

  Lattice vectors:

 A1 = (  -8.4200180000,   0.0000000000,  -8.0779810000)
 A2 = (   8.4200180000,   0.0000000000,  -8.0779810000)
 A3 = (   0.0000000000, -11.7638080000,   0.0000000000)

Analysis of symmetry for initial positions (statically):
 Subroutine PRICEL returns:
 Original cell was already a primitive cell.

 Routine SETGRP: Setting up the symmetry group for a
 base centered orthorhombic supercell.

 Subroutine GETGRP returns: Found  1 space group operations
 (whereof  1 operations were pure point group operations)
 out of a pool of  8 trial point group operations.

The static configuration has the point symmetry C_1 .

Analysis of symmetry for dynamics (positions and initial velocities):
 Subroutine PRICEL returns:
 Original cell was already a primitive cell.

[...]

The dynamic configuration has the point symmetry C_1 .

Analysis of constrained symmetry for selective dynamics:
 Subroutine PRICEL returns:
 Original cell was already a primitive cell.

 Routine SETGRP: Setting up the symmetry group for a
 base centered orthorhombic supercell.

 Subroutine GETGRP returns: Found  1 space group operations
 (whereof  1 operations were pure point group operations)
 out of a pool of  8 trial point group operations.

The constrained configuration has the point symmetry C_1 .

 Subroutine INISYM returns: Found  1 space group operations
 (whereof  1 operations are pure point group operations),
 and found     1 'primitive' translations

 KPOINTS: 1x1x1

Automatic generation of k-mesh.
Space group operators:
 irot       det(A)        alpha          n_x          n_y          n_z        tau_x        tau_y        tau_z
    1     1.000000     0.000000     1.000000     0.000000     0.000000     0.000000     0.000000     0.000000

 Subroutine IBZKPT returns following result:

 Found      8 irreducible k-points:

 Following reciprocal coordinates:
            Coordinates               Weight
  0.000000  0.000000  0.000000      1.000000
  0.500000  0.000000  0.000000      1.000000
  0.000000  0.500000  0.000000      1.000000
  0.500000  0.500000  0.000000      1.000000
  0.000000  0.000000  0.500000      1.000000
  0.500000  0.000000  0.500000      1.000000
  0.000000  0.500000  0.500000      1.000000
  0.500000  0.500000  0.500000      1.000000

 Following cartesian coordinates:
            Coordinates               Weight
  0.000000  0.000000  0.000000      1.000000
  0.029691  0.000000  0.030948      1.000000
  0.000000  0.042503  0.000000      1.000000
  0.029691  0.042503  0.030948      1.000000
 -0.029691  0.000000  0.030948      1.000000
  0.000000  0.000000  0.061897      1.000000
 -0.029691  0.042503  0.030948      1.000000
  0.000000  0.042503  0.061897      1.000000

 SYSTEM =  CsPbBr3 cubic bulk
 POSCAR =  Cs Pb Br

 Startparameter for this run:
   NWRITE =      2    write-flag & timer
   PREC   = accura    normal or accurate (medium, high low for compatibility)
   ISTART =      0    job   : 0-new  1-cont  2-samecut
   ICHARG =      2    charge: 1-file 2-atom 10-const
   ISPIN  =      1    spin polarized calculation?
   LNONCOLLINEAR =      F non collinear calculations
   LSORBIT =      F    spin-orbit coupling
   INIWAV =      1    electr: 0-lowe 1-rand  2-diag
   LASPH  =      T    aspherical Exc in radial PAW
   METAGGA=      F    non-selfconsistent MetaGGA calc.

 Electronic Relaxation 1
   ENCUT  =  300.0 eV  22.05 Ry    4.70 a.u.  16.48 16.61 16.48*2*pi/ulx,y,z
   ENINI  =  300.0     initial cutoff
   ENAUG  =  503.9 eV  augmentation charge cutoff
   NELM   =    200;   NELMIN=  2; NELMDL= -5     # of ELM steps
   EDIFF  = 0.1E-05   stopping-criterion for ELM
   LREAL  =      T    real-space projection
   NLSPLINE    = F    spline interpolate recip. space projectors
   LCOMPAT=      F    compatible to vasp.4.4
   GGA_COMPAT  = T    GGA compatible to vasp.4.4-vasp.4.6
   LMAXPAW     = -100 max onsite density
   LMAXMIX     =    2 max onsite mixed and CHGCAR
   VOSKOWN=      0    Vosko Wilk Nusair interpolation
   ROPT   =   -0.00025  -0.00025  -0.00025
 Ionic relaxation
   EDIFFG = -.1E-01   stopping-criterion for IOM
   NSW    =      0    number of steps for IOM
   NBLOCK =      1;   KBLOCK =      1    inner block; outer block
   IBRION =     -1    ionic relax: 0-MD 1-quasi-New 2-CG
   NFREE  =      1    steps in history (QN), initial steepest desc. (CG)
   ISIF   =      3    stress and relaxation
   IWAVPR =     10    prediction:  0-non 1-charg 2-wave 3-comb
   ISYM   =      2    0-nonsym 1-usesym 2-fastsym
   LCORR  =      T    Harris-Foulkes like correction to forces

   POTIM  = 0.5000    time-step for ionic-motion
   TEIN   =    0.0    initial temperature
   TEBEG  =    0.0;   TEEND  =   0.0 temperature during run
   SMASS  =  -3.00    Nose mass-parameter (am)
   estimated Nose-frequenzy (Omega)   =  0.10E-29 period in steps =****** mass=  -0.311E-26a.u.
   SCALEE = 1.0000    scale energy and forces
   NPACO  =    256;   APACO  = 16.0  distance and # of slots for P.C.
   PSTRESS=    0.0 pullay stress

  Mass of Ions in am
   POMASS = 132.90207.20 79.90
  Ionic Valenz
   ZVAL   =   9.00 14.00  7.00
  Atomic Wigner-Seitz radii
  virtual crystal weights
   VCA    =   1.00  1.00  1.00
   NELECT =     352.0000    total number of electrons
   NUPDOWN=      -1.0000    fix difference up-down

 DOS related values:
   EMIN   =  10.00;   EMAX   =-10.00  energy-range for DOS
   EFERMI =   0.00
   ISMEAR =     0;   SIGMA  =   0.01  broadening in eV -4-tet -1-fermi 0-gaus

 Electronic relaxation 2 (details)
   IALGO  =     38    algorithm
   LDIAG  =      T    sub-space diagonalisation (order eigenvalues)
   LSUBROT=      F    optimize rotation matrix (better conditioning)
   TURBO    =      0    0=normal 1=particle mesh
   IRESTART =      0    0=no restart 2=restart with 2 vectors
   NREBOOT  =      0    no. of reboots
   NMIN     =      0    reboot dimension
   EREF     =   0.00    reference energy to select bands
   IMIX   =      4    mixing-type and parameters
     AMIX     =   0.40;   BMIX     =  1.00
     AMIX_MAG =   1.60;   BMIX_MAG =  1.00
     AMIN     =   0.10
     WC   =   100.;   INIMIX=   1;  MIXPRE=   1;  MAXMIX= -45

[...]
     23     -16.5035      2.00000
     24     -16.5021      2.00000
     25     -16.4953      2.00000
     26     -16.4818      2.00000
     27     -16.4706      2.00000
     28     -16.4175      2.00000
     29     -16.4018      2.00000
     30     -16.3905      2.00000
     31     -16.3864      2.00000
     32     -16.3734      2.00000
     33     -16.3635      2.00000
     34     -16.3290      2.00000
     35     -16.3174      2.00000
     36     -16.3100      2.00000
     37     -16.2978      2.00000
     38     -16.2601      2.00000
     39     -16.2284      2.00000
     40     -16.2280      2.00000
     41     -16.2132      2.00000
     42     -16.2100      2.00000
     43     -16.2084      2.00000
     44     -16.1763      2.00000
     45     -16.1065      2.00000
     46     -16.0129      2.00000
     47     -15.9894      2.00000
     48     -15.9685      2.00000
     49     -14.8027      2.00000
     50     -14.5447      2.00000
     51     -14.4200      2.00000
     52     -14.2697      2.00000
     53     -14.2522      2.00000
     54     -14.2126      2.00000
     55     -14.1204      2.00000
     56     -14.1079      2.00000
     57     -14.0483      2.00000
     58     -13.9730      2.00000
     59     -13.9080      2.00000
     60     -13.8875      2.00000
[...]
    202       6.0767      0.00000
    203       6.0989      0.00000
    204       6.2276      0.00000
    205       6.2682      0.00000
    206       6.2764      0.00000
    207       6.3340      0.00000
    208       6.3885      0.00000
    209       6.4352      0.00000
    210       6.5186      0.00000
    211       6.5298      0.00000
    212       6.5590      0.00000
    213       6.5878      0.00000
    214       6.6594      0.00000
    215       6.6993      0.00000
    216       6.7675      0.00000

 soft charge-density along one line, spin component           1
         0         1         2         3         4         5         6         7         8         9
 total charge-density along one line

------------------------ aborting loop because EDIFF is reached ----------------------------------------

 total charge

# of ion       s       p       d       tot
    1        1.789   4.720   0.024   6.532
    2        1.790   4.721   0.028   6.540
    3        1.789   4.718   0.024   6.531
    4        1.786   4.719   0.020   6.525
    5        1.786   4.719   0.020   6.525
    6        1.787   4.718   0.021   6.525
    7        1.788   4.719   0.024   6.531
    8        1.785   4.716   0.018   6.519
    9        1.549   0.426   9.830  11.805
   10        1.547   0.430   9.831  11.808
   11        1.548   0.436   9.831  11.814
   12        1.549   0.430   9.832  11.810
   13        1.544   0.425   9.831  11.800
   14        1.540   0.426   9.825  11.791
   15        1.548   0.463   9.839  11.849
   16        1.547   0.416   9.830  11.793
   17        1.613   3.270   0.004   4.887
   18        1.620   3.292   0.011   4.922
   19        1.615   3.284   0.007   4.906
   20        1.614   3.275   0.005   4.894
   21        1.616   3.279   0.007   4.902
   22        1.617   3.300   0.008   4.924
   23        1.620   3.285   0.010   4.915
   24        1.612   3.277   0.004   4.893
   25        1.614   3.291   0.006   4.912
   26        1.616   3.272   0.006   4.894
   27        1.616   3.279   0.007   4.902
   28        1.619   3.293   0.010   4.921
   29        1.615   3.285   0.005   4.904
   30        1.615   3.282   0.006   4.903
   31        1.614   3.272   0.005   4.891
   32        1.617   3.288   0.008   4.913
   33        1.616   3.285   0.007   4.907
   34        1.614   3.277   0.005   4.896
   35        1.619   3.296   0.010   4.925
   36        1.616   3.282   0.007   4.904
   37        1.616   3.290   0.007   4.913
   38        1.616   3.269   0.006   4.891
   39        1.616   3.282   0.007   4.905
   40        1.620   3.276   0.009   4.905
tot         65.456 119.978  78.993 264.428

  FORCE on cell =-STRESS in cart. coord.  units (eV):
  Direction    XX          YY          ZZ          XY          YZ          ZX
  Alpha Z   901.86909   901.86909   901.86909
  Ewald   -6130.47835 -6131.41559 -6129.87921    -4.12065    31.03102  -176.25947
  Hartree  2473.75359  2477.27163  2458.62553    -4.92037    13.53461  -103.05096
  E(xc)   -1478.20682 -1478.18013 -1478.00607    -0.00499    -0.03203    -0.18291
  Local   -2881.49287 -2884.66694 -2867.22045     9.19310   -42.28519   278.44130
  n-local  1800.25981  1798.62589  1799.84822    -0.61042    -0.18628    -2.84666
  augment   814.11900   813.11938   812.77281    -0.10565     0.07762    -0.15581
  Kinetic  4499.43169  4506.72536  4508.56046     0.68874    -2.36362     1.35406
  Fock        0.00000     0.00000     0.00000     0.00000     0.00000     0.00000
  Total      -0.74484     3.34869     6.57039     0.11977    -0.22387    -2.70046
  in kB      -0.74573     3.35267     6.57821     0.11991    -0.22414    -2.70367

 VOLUME and BASIS-vectors are now :
  energy-cutoff  :      300.00
  volume of cell :     1600.27
      direct lattice vectors                 reciprocal lattice vectors
     8.420018000  0.000000000  8.077981000     0.059382296 -0.000000000  0.061896655
     0.000000000 11.763808000  0.000000000     0.000000000  0.085006488 -0.000000000
    -8.420018000  0.000000000  8.077981000    -0.059382296  0.000000000  0.061896655

  length of vectors
    11.668353789 11.763808000 11.668353789     0.085775596  0.085006488  0.085775596

 FORCES acting on ions
    electron-ion (+dipol)            ewald-force                    non-local-force                 convergence-correction
   0.564E+02 -.186E+02 -.265E+02   -.565E+02 0.189E+02 0.262E+02   -.297E+00 -.215E+00 0.231E+00   -.233E-03 0.270E-05 -.191E-03
   -.597E+01 -.217E+02 0.356E+02   0.602E+01 0.216E+02 -.355E+02   0.218E+00 0.473E+00 -.832E-01   0.251E-03 0.426E-04 0.911E-04
   0.697E+01 -.133E+02 0.656E+02   -.752E+01 0.129E+02 -.663E+02   0.508E+00 0.343E+00 0.714E-01   0.220E-04 -.803E-04 0.937E-04
   0.359E+02 0.438E+02 -.204E+02   -.358E+02 -.437E+02 0.208E+02   -.512E+00 -.160E+00 -.146E+00   -.151E-03 -.242E-04 -.116E-03
   -.179E+02 -.138E+02 -.303E+01   0.179E+02 0.139E+02 0.299E+01   0.273E+00 0.590E-01 0.653E-01   -.723E-04 0.301E-04 -.228E-03
   -.210E+02 -.318E+02 -.840E+01   0.211E+02 0.322E+02 0.834E+01   0.263E+00 -.110E+00 0.648E-01   0.809E-04 0.266E-04 0.267E-03
   -.316E+02 0.132E+02 -.189E+02   0.313E+02 -.131E+02 0.188E+02   0.419E+00 0.141E+00 0.182E+00   0.132E-03 -.539E-04 0.101E-03
   -.220E+02 0.323E+02 0.597E+02   0.228E+02 -.324E+02 -.597E+02   -.571E+00 -.228E-02 -.142E+00   -.928E-04 0.360E-05 -.947E-04
   -.107E+02 0.352E+02 0.143E+02   0.121E+02 -.329E+02 -.155E+02   -.138E+01 -.161E+01 0.102E+01   0.609E-04 -.840E-04 0.601E-04
   -.292E+02 -.203E+02 -.217E+02   0.301E+02 0.211E+02 0.250E+02   -.113E+01 -.344E+00 -.211E+01   -.260E-04 -.859E-04 -.108E-03
   -.370E+02 0.525E+02 0.515E+02   0.390E+02 -.560E+02 -.521E+02   -.126E+01 0.265E+01 0.705E+00   -.152E-03 -.243E-03 0.412E-04
   0.132E+02 -.244E+02 0.150E+02   -.125E+02 0.266E+02 -.172E+02   -.101E+01 -.130E+01 0.172E+01   0.163E-03 0.143E-04 0.207E-04
   0.584E+02 -.486E+02 0.174E+02   -.619E+02 0.514E+02 -.190E+02   0.342E+01 -.215E+01 0.169E+01   -.156E-05 0.221E-03 0.391E-04
   -.443E+02 0.228E+02 -.522E+02   0.449E+02 -.247E+02 0.551E+02   -.911E+00 0.839E+00 -.322E+01   -.137E-03 0.709E-04 -.145E-03
   -.127E+02 -.641E+02 0.101E+02   0.978E+01 0.669E+02 -.878E+01   0.264E+01 -.273E+01 -.945E+00   0.772E-04 0.112E-03 0.225E-04
   0.106E+02 -.678E+01 -.347E+02   -.105E+02 0.768E+01 0.361E+02   0.353E+00 -.155E+01 -.164E+01   0.132E-03 0.145E-03 0.100E-03
   0.223E+02 0.624E+01 0.422E+01   -.225E+02 -.617E+01 -.362E+01   0.321E+00 -.252E-01 -.109E+01   -.489E-04 -.531E-05 0.289E-05
   0.285E+02 0.281E+02 -.580E+02   -.291E+02 -.284E+02 0.584E+02   0.759E+00 0.269E+00 -.286E+00   -.545E-04 0.167E-04 0.317E-05
   0.327E+02 0.137E+02 0.205E+01   -.332E+02 -.140E+02 -.195E+01   0.561E+00 0.132E+00 -.745E-01   0.228E-04 0.220E-04 0.926E-04
   -.620E+01 0.390E+01 -.117E+02   0.633E+01 -.396E+01 0.117E+02   -.304E+00 -.250E+00 0.127E+00   0.379E-04 0.456E-04 0.320E-04
   -.362E+02 0.356E+02 -.471E+02   0.363E+02 -.362E+02 0.476E+02   -.320E-01 0.258E+00 -.469E+00   0.214E-04 0.183E-04 0.673E-05
   0.394E+02 0.194E+02 -.227E+02   -.397E+02 -.195E+02 0.229E+02   0.670E+00 -.185E-02 -.640E+00   0.225E-04 0.486E-05 -.623E-04
   -.222E+02 -.208E+02 -.680E+02   0.224E+02 0.209E+02 0.690E+02   -.183E+00 0.429E-01 -.711E+00   -.285E-04 -.222E-04 0.204E-04
   0.377E+01 -.162E+02 0.450E+01   -.373E+01 0.162E+02 -.443E+01   -.109E+00 0.171E+00 -.168E+00   0.165E-06 -.121E-05 -.551E-04
   -.257E+02 -.191E+02 -.125E+02   0.261E+02 0.190E+02 0.126E+02   -.314E+00 0.240E+00 0.661E-01   -.164E-03 0.113E-03 -.141E-03
   0.316E+02 0.612E+01 -.293E+01   -.317E+02 -.645E+01 0.277E+01   0.232E+00 0.390E+00 0.289E+00   0.392E-04 -.707E-06 0.785E-04
   -.398E+02 -.309E+02 -.177E+01   0.403E+02 0.311E+02 0.189E+01   -.356E+00 -.202E+00 -.189E+00   -.344E-05 0.427E-04 0.101E-03
   -.406E+02 -.187E+02 0.461E+02   0.411E+02 0.188E+02 -.471E+02   0.347E+00 -.204E-01 0.591E+00   -.196E-04 0.911E-04 -.203E-04
   -.130E+02 -.250E+02 -.115E+02   0.133E+02 0.252E+02 0.116E+02   -.861E+00 -.752E+00 -.411E+00   0.846E-04 -.752E-04 -.235E-04
   -.197E+02 -.146E+02 -.344E+02   0.198E+02 0.149E+02 0.348E+02   -.214E+00 -.334E+00 -.183E+00   -.264E-04 -.660E-05 -.308E-05
   0.241E+02 0.291E+02 -.183E+02   -.245E+02 -.291E+02 0.184E+02   0.723E+00 -.287E+00 0.946E-01   0.634E-04 -.484E-04 0.100E-03
   0.311E+02 -.388E+02 -.107E+02   -.315E+02 0.392E+02 0.108E+02   0.220E+00 -.476E+00 -.292E+00   -.107E-04 -.412E-04 -.124E-03
   -.857E+01 0.299E+01 0.527E+02   0.840E+01 -.273E+01 -.533E+02   0.637E-01 -.454E+00 0.463E+00   -.119E-03 -.704E-04 -.723E-04
   0.172E+01 0.352E+02 0.110E+02   -.200E+01 -.357E+02 -.109E+02   0.400E+00 0.659E+00 -.110E+00   0.537E-04 -.350E-04 0.917E-04
   0.801E+01 0.121E+02 0.140E+02   -.774E+01 -.120E+02 -.141E+02   -.296E+00 -.267E+00 -.174E+00   -.500E-04 -.869E-04 0.389E-04
   0.272E+02 0.614E+01 0.161E+02   -.276E+02 -.599E+01 -.164E+02   0.531E+00 -.271E+00 0.562E+00   0.601E-04 -.744E-04 0.356E-04
   -.233E+02 -.226E+02 -.310E+01   0.236E+02 0.227E+02 0.316E+01   -.404E+00 -.214E+00 0.131E+00   0.892E-04 0.724E-04 0.116E-03
   -.729E+01 0.309E+02 0.404E+02   0.761E+01 -.315E+02 -.406E+02   -.836E+00 0.936E+00 -.211E-01   -.667E-04 0.441E-04 -.275E-04
   0.149E+02 0.239E+02 0.200E+02   -.150E+02 -.240E+02 -.200E+02   -.179E+00 0.410E-01 0.330E-02   0.260E-04 0.103E-03 -.545E-04
   0.268E+02 0.220E+02 0.120E+02   -.271E+02 -.225E+02 -.125E+02   -.235E+00 0.550E+00 0.122E+01   0.376E-04 -.212E-04 0.479E-04
   -.160E+01 0.556E+01 0.373E+01   0.107E-12 -.462E-13 0.103E-12   0.154E+01 -.552E+01 -.380E+01   0.198E-04 0.182E-03 0.139E-03

 POSITION                                       TOTAL-FORCE (eV/Angst)
      0.53795      2.94095      3.88035        -0.447396      0.085133     -0.054863
      0.29115      2.87346     12.81604         0.253188      0.368753     -0.039465
      4.85163      8.61518      9.47431        -0.052598     -0.043723     -0.536653
     -4.32024      9.30373      8.66967        -0.402213     -0.072980      0.256528
     -3.87893      3.30968      8.14247         0.185589      0.109811      0.020571
      3.91401      2.29731      8.96659         0.316868      0.194341     -0.015360
     -0.89807      9.23804     12.48579         0.072673      0.289175      0.062980
     -0.06485      9.13229      5.30140         0.213862     -0.081763     -0.146668
     -0.17935     11.43782      0.26325        -0.054611      0.715289     -0.177503
      0.20719      0.20924      8.36455        -0.281586      0.466037      1.155957
      4.03842      0.81809      4.13680         0.762533     -0.941387      0.084317
     -4.09352     11.27984      4.67329        -0.314792      0.999757     -0.428687
      4.01752      6.18594      4.51280        -0.024103      0.655417      0.015524
     -3.42918      5.79492      4.32997        -0.357560     -1.111745     -0.221037
     -8.18551      5.69897      8.02323        -0.280708     -0.004204      0.442686
      0.12581      6.41574      8.81083         0.546409     -0.685523     -0.172948
      3.63717      9.35980      4.57258         0.183986      0.041782     -0.530102
     -4.02005      8.49056      5.15127         0.208490      0.013038      0.142522
      7.98841      2.79387      8.16570         0.120442     -0.067616      0.021112
      0.61051      3.37207      8.79062        -0.173907     -0.313823      0.098044
      0.21347      8.69256      0.92284         0.094676     -0.192110      0.004021
     -0.94090      9.26759      9.05110         0.338956     -0.055248     -0.406433
      4.10522      3.42755      5.20556         0.013040      0.043038      0.176596
     -3.92335      2.63306      4.52411        -0.073683      0.204820     -0.102573
     -6.13367      5.34586     10.10604         0.066014      0.119633      0.138260
      2.56473      5.98426     10.64372         0.150852      0.072424      0.145594
      2.42593      6.96678      7.03798         0.031244      0.063576     -0.079257
     -6.23424      5.49462      6.13206         0.801331      0.029951     -0.330708
     -1.57475      1.06913     10.89067        -0.619147     -0.511239     -0.376596
     -1.60298     11.56011      2.82541        -0.143893     -0.048156      0.195986
      5.70285      0.06539      6.70808         0.344280     -0.288223      0.150612
     -2.31411      0.22947      6.96325        -0.173175     -0.096435     -0.184967
     -5.94176      0.86096      9.76364        -0.079253     -0.220457     -0.101326
      2.30747     10.82945     10.37852         0.153920      0.247325     -0.005966
      1.90935      0.59697      6.17392        -0.051780     -0.165119     -0.259533
      1.63441     11.51300     13.96299         0.123718     -0.135050      0.248131
     -1.90716      6.42934     14.08140        -0.117569     -0.128443      0.190167
     -0.87259      5.30631      6.18061        -0.542403      0.407468     -0.229702
     -2.32969      6.10410     10.40743        -0.266866     -0.079499     -0.018808
      6.34506      5.38226      9.83681        -0.524829      0.115974      0.869545
    total drift:                               -0.061123      0.033646     -0.066436

  FREE ENERGIE OF THE ION-ELECTRON SYSTEM (eV)
  free  energy   TOTEN  =     -1426.27884552 eV

  energy  without entropy=    -1426.27884552  energy(sigma->0) =    -1426.27884552

 stress matrix after NEB project (eV)
     -0.74484      0.11982     -2.70046
      0.11977      3.34869     -0.22361
     -2.70032     -0.22387      6.57039
  FORCES: max atom, RMS     1.277778    0.590158
  FORCE total and by dimension    3.732487    1.155957
  Stress total and by dimension    8.345748    6.570388

 total charge

# of ion       s       p       d       tot
    1        1.789   4.720   0.024   6.532
    2        1.790   4.721   0.028   6.540
    3        1.789   4.718   0.024   6.531
    4        1.786   4.719   0.020   6.525
    5        1.786   4.719   0.020   6.525
    6        1.787   4.718   0.021   6.525
    7        1.788   4.719   0.024   6.531
    8        1.785   4.716   0.018   6.519
    9        1.549   0.426   9.830  11.805
   10        1.547   0.430   9.831  11.808
   11        1.548   0.436   9.831  11.814
   12        1.549   0.430   9.832  11.810
   13        1.544   0.425   9.831  11.800
   14        1.540   0.426   9.825  11.791
   15        1.548   0.463   9.839  11.849
   16        1.547   0.416   9.830  11.793
   17        1.613   3.270   0.004   4.887
   18        1.620   3.292   0.011   4.922
   19        1.615   3.284   0.007   4.906
   20        1.614   3.275   0.005   4.894
   21        1.616   3.279   0.007   4.902
   22        1.617   3.300   0.008   4.924
   23        1.620   3.285   0.010   4.915
   24        1.612   3.277   0.004   4.893
   25        1.614   3.291   0.006   4.912
   26        1.616   3.272   0.006   4.894
   27        1.616   3.279   0.007   4.902
   28        1.619   3.293   0.010   4.921
   29        1.615   3.285   0.005   4.904
   30        1.615   3.282   0.006   4.903
   31        1.614   3.272   0.005   4.891
   32        1.617   3.288   0.008   4.913
   33        1.616   3.285   0.007   4.907
   34        1.614   3.277   0.005   4.896
   35        1.619   3.296   0.010   4.925
   36        1.616   3.282   0.007   4.904
   37        1.616   3.290   0.007   4.913
   38        1.616   3.269   0.006   4.891
   39        1.616   3.282   0.007   4.905
   40        1.620   3.276   0.009   4.905
tot         65.456 119.978  78.993 264.428