 vasp.5.4.4.18Apr17-6-g9f103f2a35 (build Jun 22 2020 09:27:21) complex

 INCAR:
 POTCAR:    PAW_PBE Cs_sv 08Apr2002
 POTCAR:    PAW_PBE Pb_d 06Sep2000
 POTCAR:    PAW_PBE Br 06Sep2000
 POTCAR:    PAW_PBE Cs_sv 08Apr2002
   VRHFIN =Cs: 5s5p6s

   TITEL  = PAW_PBE Cs_sv 08Apr2002
   POMASS =  132.900; ZVAL   =    9.000    mass and valenz
   ENMAX  =  220.318; ENMIN  =  165.238 eV

   TITEL  = PAW_PBE Pb_d 06Sep2000
   POMASS =  207.200; ZVAL   =   14.000    mass and valenz
   ENMAX  =  237.835; ENMIN  =  178.376 eV

   TITEL  = PAW_PBE Br 06Sep2000
   POMASS =   79.904; ZVAL   =    7.000    mass and valenz
   ENMAX  =  216.285; ENMIN  =  162.214 eV

 Optimization of the real space projectors (new method)

 maximal supplied QI-value         = 15.12
 optimisation between [QCUT,QGAM] = [  8.77, 17.69] = [ 21.53, 87.61] Ry
 Optimized for a Real-space Cutoff    1.85 Angstroem

   l    n(q)    QCUT    max X(q) W(low)/X(q) W(high)/X(q)  e(spline)
   0     10     8.768    25.322    0.81E-04    0.51E-04    0.48E-06
   0     10     8.768    99.187    0.78E-04    0.50E-04    0.47E-06
   1      9     8.768    11.761    0.21E-03    0.20E-03    0.37E-06
   1      9     8.768     8.275    0.24E-03    0.22E-03    0.41E-06
   2      9     8.768     3.829    0.23E-04    0.15E-03    0.18E-06
 Optimization of the real space projectors (new method)

[...]

   l    n(q)    QCUT    max X(q) W(low)/X(q) W(high)/X(q)  e(spline)
   2      7     8.768     3.846    0.48E-04    0.11E-03    0.11E-06
   2      7     8.768     8.593    0.20E-03    0.22E-04    0.24E-06
   0      8     8.768    20.082    0.68E-04    0.88E-04    0.41E-07
   0      8     8.768     8.597    0.89E-04    0.13E-03    0.59E-07
   1      8     8.768    33.223    0.15E-03    0.53E-04    0.87E-07
   1      8     8.768    15.899    0.14E-03    0.44E-04    0.78E-07
 Optimization of the real space projectors (new method)

 maximal supplied QI-value         = 17.95
 optimisation between [QCUT,QGAM] = [  8.80, 17.59] = [ 21.67, 86.68] Ry
 Optimized for a Real-space Cutoff    1.59 Angstroem

   l    n(q)    QCUT    max X(q) W(low)/X(q) W(high)/X(q)  e(spline)
   0      8     8.797   175.082    0.82E-04    0.14E-03    0.89E-07
   0      8     8.797   174.004    0.79E-04    0.14E-03    0.86E-07
   1      8     8.797    54.315    0.16E-03    0.14E-04    0.30E-06
   1      8     8.797    42.441    0.16E-03    0.14E-04    0.30E-06
   2      7     8.797     3.596    0.92E-04    0.15E-03    0.85E-07
  PAW_PBE Cs_sv 08Apr2002               :
  PAW_PBE Pb_d 06Sep2000                :
  PAW_PBE Br 06Sep2000                  :

 POSCAR: Cs7 Pb8 Br24
  positions in direct lattice

 METAGGA = SCAN     LMAXTAU =  6    LMIXTAU =  F

 VTST: version 3.2, (02/03/18)

 CHAIN: initializing optimizer

 OPT: Using VASP Conjugate-Gradient optimizer
 CHAIN: Read ICHAIN            0

 POSCAR: Cs7 Pb8 Br24
  positions in direct lattice

 ion  position               nearest neighbor table
   1  0.272  0.250  0.208-
   2  0.772  0.250  0.708-
   3  0.708  0.750  0.272-
   4  0.208  0.750  0.772-
   5  0.292  0.250  0.728-
   6  0.792  0.250  0.228-
   7  0.228  0.750  0.292-
   8  0.000  0.000  0.000-  18 2.99  20 2.99  29 3.00  35 3.00  32 3.01  30 3.01
   9  0.500  0.000  0.500-  19 2.99  21 2.99  28 3.00  34 3.00  33 3.01  31 3.01
  10  0.500  0.000  0.000-  16 2.99  22 2.99  30 3.00  32 3.00  28 3.01  34 3.01
  11  0.000  0.000  0.500-  17 2.99  23 2.99  31 3.00  33 3.00  29 3.01  35 3.01
  12  0.500  0.500  0.000-  16 2.99  22 2.99  24 3.00  36 3.00  26 3.01  38 3.01
  13  0.000  0.500  0.500-  17 2.99  23 2.99  25 3.00  37 3.00  27 3.01  39 3.01
  14  0.000  0.500  0.000-  18 2.99  20 2.99  27 3.00  39 3.00  36 3.01  24 3.01
  15  0.500  0.500  0.500-  19 2.99  21 2.99  26 3.00  38 3.00  37 3.01  25 3.01
  16  0.469  0.750  0.963-  10 2.99  12 2.99
  17  0.969  0.750  0.463-  11 2.99  13 2.99
  18  0.963  0.250  0.969-   8 2.99  14 2.99
  19  0.463  0.250  0.469-   9 2.99  15 2.99
  20  0.037  0.750  0.031-   8 2.99  14 2.99
  21  0.537  0.750  0.531-   9 2.99  15 2.99
  22  0.531  0.250  0.037-  10 2.99  12 2.99
  23  0.031  0.250  0.537-  11 2.99  13 2.99
  24  0.248  0.466  0.949-  12 3.00  14 3.01
  25  0.748  0.466  0.449-  13 3.00  15 3.01
  26  0.449  0.534  0.248-  15 3.00  12 3.01
  27  0.949  0.534  0.748-  14 3.00  13 3.01
  28  0.551  0.034  0.752-   9 3.00  10 3.01
  29  0.051  0.034  0.252-   8 3.00  11 3.01
  30  0.752  0.966  0.051-  10 3.00   8 3.01
  31  0.252  0.966  0.551-  11 3.00   9 3.01
  32  0.248  0.034  0.949-  10 3.00   8 3.01
  33  0.748  0.034  0.449-  11 3.00   9 3.01
  34  0.449  0.966  0.248-   9 3.00  10 3.01
  35  0.949  0.966  0.748-   8 3.00  11 3.01
  36  0.752  0.534  0.051-  12 3.00  14 3.01
  37  0.252  0.534  0.551-  13 3.00  15 3.01
  38  0.551  0.466  0.752-  15 3.00  12 3.01
  39  0.051  0.466  0.252-  14 3.00  13 3.01

IMPORTANT INFORMATION: All symmetrisations will be switched off!
NOSYMM: (Re-)initialisation of all symmetry stuff for point group C_1.

 KPOINTS: 1x1x1

Automatic generation of k-mesh.
Space group operators:
 irot       det(A)        alpha          n_x          n_y          n_z        tau_x        tau_y        tau_z
    1     1.000000     0.000000     1.000000     0.000000     0.000000     0.000000     0.000000     0.000000

 Subroutine IBZKPT returns following result:

 Found      8 irreducible k-points:

 Following reciprocal coordinates:
            Coordinates               Weight
  0.000000  0.000000  0.000000      1.000000
  0.500000  0.000000  0.000000      1.000000
  0.000000  0.500000  0.000000      1.000000
  0.500000  0.500000  0.000000      1.000000
  0.000000  0.000000  0.500000      1.000000
  0.500000  0.000000  0.500000      1.000000
  0.000000  0.500000  0.500000      1.000000
  0.500000  0.500000  0.500000      1.000000

 Following cartesian coordinates:
            Coordinates               Weight
  0.000000  0.000000  0.000000      1.000000
  0.029691  0.000000  0.030948      1.000000
  0.000000  0.042503  0.000000      1.000000
  0.029691  0.042503  0.030948      1.000000
 -0.029691  0.000000  0.030948      1.000000
  0.000000  0.000000  0.061897      1.000000
 -0.029691  0.042503  0.030948      1.000000
  0.000000  0.042503  0.061897      1.000000

 SYSTEM =  CsPbBr3 cubic bulk
 POSCAR =  Cs7 Pb8 Br24

 Startparameter for this run:
   NWRITE =      2    write-flag & timer
   PREC   = accura    normal or accurate (medium, high low for compatibility)
   ISTART =      0    job   : 0-new  1-cont  2-samecut
   ICHARG =      2    charge: 1-file 2-atom 10-const
   ISPIN  =      1    spin polarized calculation?
   LNONCOLLINEAR =      F non collinear calculations
   LSORBIT =      F    spin-orbit coupling
   INIWAV =      1    electr: 0-lowe 1-rand  2-diag
   LASPH  =      T    aspherical Exc in radial PAW
   METAGGA=      F    non-selfconsistent MetaGGA calc.

 Electronic Relaxation 1
   ENCUT  =  300.0 eV  22.05 Ry    4.70 a.u.  16.48 16.61 16.48*2*pi/ulx,y,z
   ENINI  =  300.0     initial cutoff
   ENAUG  =  503.9 eV  augmentation charge cutoff
   NELM   =    200;   NELMIN=  2; NELMDL= -5     # of ELM steps
   EDIFF  = 0.1E-05   stopping-criterion for ELM
   LREAL  =      T    real-space projection
   NLSPLINE    = F    spline interpolate recip. space projectors
   LCOMPAT=      F    compatible to vasp.4.4
   GGA_COMPAT  = T    GGA compatible to vasp.4.4-vasp.4.6
   LMAXPAW     = -100 max onsite density
   LMAXMIX     =    2 max onsite mixed and CHGCAR
   VOSKOWN=      0    Vosko Wilk Nusair interpolation
   ROPT   =   -0.00025  -0.00025  -0.00025
 Ionic relaxation
   EDIFFG = -.1E-01   stopping-criterion for IOM
   NSW    =    150    number of steps for IOM
   NBLOCK =      1;   KBLOCK =    150    inner block; outer block
   IBRION =      2    ionic relax: 0-MD 1-quasi-New 2-CG
   NFREE  =      1    steps in history (QN), initial steepest desc. (CG)
   ISIF   =      2    stress and relaxation
   IWAVPR =     11    prediction:  0-non 1-charg 2-wave 3-comb
   ISYM   =      0    0-nonsym 1-usesym 2-fastsym
   LCORR  =      T    Harris-Foulkes like correction to forces

   POTIM  = 0.5000    time-step for ionic-motion
   TEIN   =    0.0    initial temperature
   TEBEG  =    0.0;   TEEND  =   0.0 temperature during run
   SMASS  =  -3.00    Nose mass-parameter (am)
   estimated Nose-frequenzy (Omega)   =  0.10E-29 period in steps =****** mass=  -0.311E-26a.u.
   SCALEE = 1.0000    scale energy and forces
   NPACO  =    256;   APACO  = 16.0  distance and # of slots for P.C.
   PSTRESS=    0.0 pullay stress

  Mass of Ions in am
   POMASS = 132.90207.20 79.90
  Ionic Valenz
   ZVAL   =   9.00 14.00  7.00
  Atomic Wigner-Seitz radii
  virtual crystal weights
   VCA    =   1.00  1.00  1.00
   NELECT =     344.0000    total number of electrons
   NUPDOWN=       0.0000    fix difference up-down

 DOS related values:
   EMIN   =  10.00;   EMAX   =-10.00  energy-range for DOS
   EFERMI =   0.00
   ISMEAR =     0;   SIGMA  =   0.01  broadening in eV -4-tet -1-fermi 0-gaus

 Electronic relaxation 2 (details)
   IALGO  =     38    algorithm
   LDIAG  =      T    sub-space diagonalisation (order eigenvalues)
   LSUBROT=      F    optimize rotation matrix (better conditioning)
   TURBO    =      0    0=normal 1=particle mesh
   IRESTART =      0    0=no restart 2=restart with 2 vectors
   NREBOOT  =      0    no. of reboots
   NMIN     =      0    reboot dimension
   EREF     =   0.00    reference energy to select bands
   IMIX   =      4    mixing-type and parameters
     AMIX     =   0.40;   BMIX     =  1.00
     AMIX_MAG =   1.60;   BMIX_MAG =  1.00
     AMIN     =   0.10
     WC   =   100.;   INIMIX=   1;  MIXPRE=   1;  MAXMIX= -45

 Intra band minimization:
   WEIMIN = 0.0010     energy-eigenvalue tresh-hold
   EBREAK =  0.12E-08  absolut break condition
   DEPER  =   0.30     relativ break condition

   TIME   =   0.40     timestep for ELM

  volume/ion in A,a.u.               =      41.03       276.90
  Fermi-wavevector in a.u.,A,eV,Ry     =   0.980685  1.853227 13.085320  0.961744
  Thomas-Fermi vector in A             =   2.111635

 Write flags
   LWAVE        =      F    write WAVECAR
   LDOWNSAMPLE  =      F    k-point downsampling of WAVECAR
   LCHARG       =      F    write CHGCAR
   LVTOT        =      F    write LOCPOT, total local potential
   LVHAR        =      T    write LOCPOT, Hartree potential only
   LELF         =      F    write electronic localiz. function (ELF)
   LORBIT       =     10    0 simple, 1 ext, 2 COOP (PROOUT), +10 PAW based schemes

 Dipole corrections
   LMONO  =      F    monopole corrections only (constant potential shift)
   LDIPOL =      F    correct potential (dipole corrections)
   IDIPOL =      0    1-x, 2-y, 3-z, 4-all directions
   EPSILON=  1.0000000 bulk dielectric constant

 Exchange correlation treatment:
   GGA     =    --    GGA type
   VOSKOWN=      0    Vosko Wilk Nusair interpolation
   LHFCALC =     F    Hartree Fock is set to
   LHFONE  =     F    Hartree Fock one center treatment
   AEXX    =    0.0000 exact exchange contribution

 Linear response parameters
   LEPSILON=     F    determine dielectric tensor
[...]
      11-101.9015      12-101.8770      13-101.9016      14-101.8995      15-101.8857
      16 -69.0929      17 -69.2270      18 -69.2154      19 -69.1491      20 -69.2169
      21 -69.0823      22 -69.1163      23 -69.2263      24 -69.1472      25 -69.2159
      26 -69.1230      27 -69.0813      28 -69.1425      29 -69.1380      30 -69.1598
      31 -69.2191      32 -69.1468      33 -69.2158      34 -69.1231      35 -69.0812
      36 -69.1594      37 -69.2190      38 -69.1425      39 -69.1380

 E-fermi :   0.2743     XC(G=0):  -7.9308     alpha+bet : -6.8224

[...]

 k-point     8 :       0.5000    0.5000    0.5000
  band No.  band energies     occupation
      1     -21.0565      2.00000
      2     -21.0473      2.00000
      3     -21.0361      2.00000
      4     -20.9841      2.00000
      5     -20.9641      2.00000
      6     -20.9486      2.00000
      7     -20.9226      2.00000
      8     -16.6790      2.00000
      9     -16.6760      2.00000
     10     -16.6710      2.00000
     11     -16.6678      2.00000
     12     -16.6677      2.00000
     13     -16.6657      2.00000
     14     -16.6600      2.00000
     15     -16.6598      2.00000
     16     -16.6591      2.00000
     17     -16.6583      2.00000
     18     -16.6525      2.00000
     19     -16.6511      2.00000
     20     -16.6439      2.00000
     21     -16.6403      2.00000
     22     -16.6390      2.00000
     23     -16.6387      2.00000
     24     -16.5673      2.00000
     25     -16.5673      2.00000
     26     -16.5644      2.00000
     27     -16.5642      2.00000
     28     -16.5620      2.00000
     29     -16.5619      2.00000
     30     -16.5591      2.00000
     31     -16.5590      2.00000
     32     -16.5558      2.00000
     33     -16.5558      2.00000
     34     -16.5506      2.00000
     35     -16.5505      2.00000
     36     -16.5497      2.00000
     37     -16.5490      2.00000
     38     -16.5471      2.00000
     39     -16.5469      2.00000
     40     -16.5421      2.00000
     41     -16.5416      2.00000
     42     -16.5380      2.00000
     43     -16.5378      2.00000
     44     -16.5331      2.00000
     45     -16.5328      2.00000
     46     -16.5280      2.00000
     47     -16.5276      2.00000
     48     -14.4040      2.00000
     49     -14.4033      2.00000
     50     -14.3823      2.00000
     51     -14.3706      2.00000
     52     -14.3657      2.00000
     53     -14.3572      2.00000
     54     -14.3483      2.00000
     55     -14.3228      2.00000
     56     -14.1199      2.00000
     57     -14.1199      2.00000
     58     -14.0963      2.00000
     59     -14.0931      2.00000
     60     -14.0834      2.00000
[...]
    194       4.6111      0.00000
    195       4.6701      0.00000
    196       4.7213      0.00000
    197       6.0015      0.00000
    198       6.1354      0.00000
    199       6.1479      0.00000
    200       6.1726      0.00000
    201       6.2052      0.00000
    202       6.2380      0.00000
    203       6.2702      0.00000
    204       6.3054      0.00000
    205       6.3373      0.00000
    206       6.3588      0.00000
    207       6.4016      0.00000
    208       6.4128      0.00000

 soft charge-density along one line, spin component           1
         0         1         2         3         4         5         6         7         8         9
 total charge-density along one line

------------------------ aborting loop because EDIFF is reached ----------------------------------------

[...]

  FORCE on cell =-STRESS in cart. coord.  units (eV):
  Direction    XX          YY          ZZ          XY          YZ          ZX
  Alpha Z   835.99855   835.99855   835.99855
  Ewald   -5827.19843 -5726.16379 -5951.11563     0.00557    -0.02414   -61.18397
  Hartree  2569.04124  2604.63244  2483.15200     0.00399    -0.01574   -44.60711
  E(xc)   -1446.68376 -1446.58637 -1446.72108    -0.00001    -0.00001    -0.05220
  Local   -3130.12762 -3265.44249 -2921.07019    -0.00937     0.03970   105.91373
  n-local  1793.41320  1794.05558  1792.73016     0.00016    -0.00009    -0.55693
  augment   824.78914   824.65971   824.19838     0.00009    -0.00006    -0.17424
  Kinetic  4384.60244  4383.46518  4386.81320    -0.00024     0.00015     0.63610
  Fock        0.00000     0.00000     0.00000     0.00000     0.00000     0.00000
  Total       3.83475     4.61881     3.98539     0.00018    -0.00021    -0.02462
  in kB       3.83932     4.62431     3.99013     0.00018    -0.00021    -0.02465

 VOLUME and BASIS-vectors are now :
  energy-cutoff  :      300.00
  volume of cell :     1600.27
      direct lattice vectors                 reciprocal lattice vectors
     8.420018000  0.000000000  8.077981000     0.059382296 -0.000000000  0.061896655
     0.000000000 11.763808000  0.000000000     0.000000000  0.085006488 -0.000000000
    -8.420018000  0.000000000  8.077981000    -0.059382296  0.000000000  0.061896655

  length of vectors
    11.668353789 11.763808000 11.668353789     0.085775596  0.085006488  0.085775596

 FORCES acting on ions
    electron-ion (+dipol)            ewald-force                    non-local-force                 convergence-correction
   0.263E+02 0.170E-02 -.117E+02   -.262E+02 -.216E-02 0.118E+02   -.125E+00 0.248E-03 -.115E+00   -.812E-04 0.211E-03 -.113E-03
   0.332E+02 0.885E-03 -.119E+02   -.332E+02 -.946E-03 0.119E+02   -.401E-01 0.289E-04 -.218E-02   0.150E-03 0.767E-05 -.388E-03
   -.341E+02 0.195E-02 -.160E+02   0.340E+02 -.200E-02 0.160E+02   0.922E-01 0.395E-04 -.315E-01   -.970E-04 -.751E-05 0.418E-03
   -.281E+02 -.178E-02 -.504E+01   0.280E+02 0.191E-02 0.513E+01   0.143E+00 -.754E-04 -.957E-01   -.695E-04 -.418E-04 -.233E-03
   0.300E+02 0.218E-03 0.112E+02   -.298E+02 -.307E-03 -.111E+02   -.239E+00 0.646E-04 -.116E+00   0.138E-03 0.106E-04 0.204E-03
   0.285E+02 -.222E-02 0.131E+02   -.284E+02 0.226E-02 -.133E+02   -.103E+00 -.169E-04 0.158E+00   -.127E-03 0.810E-05 0.417E-04
   -.216E+02 0.190E-02 0.168E+02   0.216E+02 -.191E-02 -.169E+02   0.360E-01 0.181E-04 0.354E-01   0.256E-04 -.187E-04 0.532E-04
   0.545E+01 0.516E+02 0.680E+02   -.529E+01 -.516E+02 -.682E+02   -.155E+00 -.260E-01 0.243E+00   0.326E-03 -.526E-03 -.149E-02
   0.106E+01 0.418E+02 -.640E+02   -.110E+01 -.420E+02 0.639E+02   0.530E-01 0.125E+00 0.113E+00   -.682E-03 -.164E-03 0.118E-02
   -.793E+02 0.641E+02 0.505E+01   0.793E+02 -.643E+02 -.535E+01   0.403E-01 0.152E+00 0.304E+00   0.105E-02 -.137E-03 -.739E-03
   0.472E+02 0.347E+02 0.406E+01   -.470E+02 -.345E+02 -.465E+01   -.172E+00 -.221E+00 0.597E+00   -.906E-03 -.281E-03 -.183E-03
   -.793E+02 -.641E+02 0.503E+01   0.793E+02 0.643E+02 -.534E+01   0.405E-01 -.155E+00 0.304E+00   0.101E-02 0.127E-03 -.758E-03
   0.471E+02 -.347E+02 0.405E+01   -.470E+02 0.345E+02 -.464E+01   -.174E+00 0.221E+00 0.596E+00   -.894E-03 0.274E-03 -.197E-03
   0.546E+01 -.516E+02 0.680E+02   -.531E+01 0.516E+02 -.682E+02   -.155E+00 0.265E-01 0.244E+00   0.345E-03 0.519E-03 -.147E-02
   0.106E+01 -.418E+02 -.640E+02   -.110E+01 0.420E+02 0.639E+02   0.528E-01 -.123E+00 0.113E+00   -.700E-03 0.171E-03 0.117E-02
   -.481E+02 0.209E-01 0.260E+02   0.480E+02 -.213E-01 -.263E+02   0.166E+00 0.228E-03 0.228E+00   0.640E-03 -.128E-04 -.568E-03
   0.349E+02 0.308E-02 0.408E+02   -.348E+02 -.311E-02 -.412E+02   -.632E-01 -.177E-04 0.345E+00   -.693E-03 -.506E-05 0.485E-03
   -.124E+02 -.279E-02 0.460E+02   0.125E+02 0.286E-02 -.462E+02   -.103E+00 -.157E-04 0.171E+00   0.158E-03 0.113E-04 -.497E-03
   -.787E+01 -.148E-01 0.322E+02   0.789E+01 0.150E-01 -.325E+02   -.121E-01 -.132E-03 0.363E+00   -.278E-03 0.136E-04 0.845E-03
   0.159E+02 -.412E-02 -.135E+01   -.160E+02 0.423E-02 0.175E+01   0.109E+00 -.990E-04 -.378E+00   0.964E-04 -.113E-04 -.744E-03
   0.203E+02 -.780E-02 -.978E+02   -.205E+02 0.794E-02 0.981E+02   0.132E+00 -.182E-03 -.303E+00   -.228E-03 -.913E-05 0.103E-02
   -.163E+02 0.170E-01 -.363E+02   0.163E+02 -.174E-01 0.366E+02   -.697E-02 0.268E-03 -.299E+00   0.463E-03 0.158E-04 -.356E-03
   -.224E+01 -.130E-02 -.304E+02   0.239E+01 0.131E-02 0.306E+02   -.132E+00 0.396E-04 -.183E+00   -.437E-03 0.730E-05 0.701E-04
   -.256E+02 0.419E+01 0.264E+02   0.258E+02 -.434E+01 -.266E+02   -.165E+00 0.157E+00 0.163E+00   0.372E-03 0.192E-03 -.319E-03
   -.263E+01 -.322E+01 0.782E+01   0.287E+01 0.302E+01 -.802E+01   -.224E+00 0.181E+00 0.184E+00   -.389E-03 0.176E-03 0.554E-03
   0.106E+02 -.194E+02 0.200E+02   -.108E+02 0.195E+02 -.203E+02   0.149E+00 -.104E+00 0.232E+00   0.910E-04 0.125E-03 0.205E-03
   0.638E+02 -.649E+02 0.514E+02   -.642E+02 0.652E+02 -.518E+02   0.365E+00 -.330E+00 0.330E+00   -.365E-03 0.322E-03 -.304E-03
   -.347E+02 0.211E+02 -.484E+02   0.349E+02 -.208E+02 0.486E+02   -.147E+00 -.312E+00 -.182E+00   0.227E-03 -.113E-03 0.939E-04
   -.157E+02 -.986E+01 -.231E+02   0.159E+02 0.100E+02 0.234E+02   -.169E+00 -.174E+00 -.243E+00   -.378E-03 -.929E-04 -.142E-03
   -.309E+01 0.511E+02 0.177E+01   0.283E+01 -.512E+02 -.143E+01   0.256E+00 0.118E+00 -.307E+00   0.409E-03 -.112E-03 -.342E-03
   0.240E+02 0.289E+02 -.379E+02   -.241E+02 -.291E+02 0.382E+02   0.151E+00 0.185E+00 -.285E+00   -.143E-03 -.116E-03 0.357E-03
   -.256E+02 -.419E+01 0.264E+02   0.258E+02 0.434E+01 -.266E+02   -.165E+00 -.157E+00 0.163E+00   0.390E-03 -.196E-03 -.339E-03
   -.263E+01 0.322E+01 0.781E+01   0.287E+01 -.302E+01 -.801E+01   -.224E+00 -.181E+00 0.184E+00   -.389E-03 -.173E-03 0.550E-03
   0.106E+02 0.194E+02 0.200E+02   -.108E+02 -.195E+02 -.203E+02   0.149E+00 0.104E+00 0.232E+00   0.104E-03 -.153E-03 0.231E-03
   0.638E+02 0.648E+02 0.514E+02   -.642E+02 -.652E+02 -.518E+02   0.365E+00 0.330E+00 0.330E+00   -.362E-03 -.322E-03 -.309E-03
   -.310E+01 -.511E+02 0.177E+01   0.284E+01 0.512E+02 -.143E+01   0.256E+00 -.118E+00 -.307E+00   0.411E-03 0.109E-03 -.348E-03
   0.240E+02 -.289E+02 -.378E+02   -.241E+02 0.291E+02 0.381E+02   0.151E+00 -.185E+00 -.285E+00   -.137E-03 0.112E-03 0.361E-03
   -.347E+02 -.211E+02 -.484E+02   0.349E+02 0.208E+02 0.486E+02   -.148E+00 0.312E+00 -.182E+00   0.226E-03 0.118E-03 0.925E-04
   -.157E+02 0.985E+01 -.231E+02   0.159E+02 -.100E+02 0.234E+02   -.169E+00 0.173E+00 -.243E+00   -.342E-03 0.753E-04 -.123E-03
   0.283E+00 0.818E-03 -.205E+01   -.497E-13 -.533E-14 -.924E-13   -.185E+00 -.106E-02 0.208E+01   -.107E-02 0.112E-03 -.202E-02

 POSITION                                       TOTAL-FORCE (eV/Angst)
      0.59890      2.94095      3.80105         0.000179     -0.000007     -0.003175
      0.56091      2.94097     12.05088        -0.004079     -0.000033      0.003084
      3.64919      8.82287      7.85575        -0.002605     -0.000026     -0.006610
     -4.79821      8.82285      7.95908         0.000242      0.000024     -0.004992
     -3.75202      2.94096      8.16403         0.000128     -0.000015     -0.005142
      4.76567      2.94094      8.27346         0.004122      0.000045      0.000092
     -0.43890      8.82287      4.33511        -0.006858     -0.000012     -0.004582
     -0.00323     -0.04239     -0.01085        -0.000900     -0.003434     -0.001626
     -0.00258      0.01958      8.07799         0.004203     -0.000197     -0.002705
      4.31504     -0.01201      4.03948        -0.002352      0.003902      0.001472
     -4.22242     -0.03223      4.04083         0.000152      0.001150      0.001155
      4.31500      5.89384      4.03943        -0.002171     -0.003684      0.002288
     -4.22250      5.91410      4.04080         0.000477     -0.000885      0.001243
     -0.00314      5.92411     -0.01076        -0.001809      0.003349     -0.002297
     -0.00257      5.86250      8.07804         0.004104      0.000095     -0.002955
     -4.29969      8.82291     11.61988        -0.000728     -0.000072      0.001327
      4.43361      8.82285     11.46660        -0.002205     -0.000042     -0.006819
      0.00013      2.94087     15.69222         0.000673     -0.000003      0.000025
     -0.12562      2.94097      7.36502        -0.003372      0.000077      0.005253
      0.04104      8.82278      0.71845         0.006760     -0.000072      0.004514
      0.03453      8.82290      8.39131        -0.000852     -0.000019     -0.000390
      4.14025      2.94100      4.62238        -0.002334      0.000001      0.002950
     -4.23181      2.94094      4.52271        -0.001633      0.000046      0.000930
     -5.90646      5.47877      9.69630         0.001340     -0.000579     -0.000570
      2.49574      5.43109      9.67163        -0.003292     -0.000091     -0.001183
      1.73613      6.20639      5.63071         0.001160      0.000386      0.001405
      1.72808      6.28644     13.72782         0.002077     -0.000093      0.003094
     -1.74827      0.66976     10.41178         0.003253     -0.004976     -0.001642
     -1.66855      0.42580      2.46197         0.001350      0.001275      0.004737
      5.80386     11.50253      6.61342         0.000512      0.002194      0.001593
     -2.54735     11.33334      6.48578        -0.000982      0.002194      0.001139
     -5.90646      0.40315      9.69628         0.001315      0.000504     -0.000489
      2.49574      0.45084      9.67164        -0.003382      0.000094     -0.001238
      1.73614     11.43936      5.63070         0.001183     -0.000369      0.001411
      1.72806     11.35923     13.72781         0.002102      0.000090      0.003067
      5.80385      6.14320      6.61343         0.000589     -0.002254      0.001514
     -2.54732      6.31240      6.48581        -0.001029     -0.002214      0.001050
     -1.74828      5.21218     10.41180         0.003289      0.004942     -0.001653
     -1.66855      5.45608      2.46197         0.001373     -0.001292      0.004726
    total drift:                                0.097294     -0.000131      0.025787

  FREE ENERGIE OF THE ION-ELECTRON SYSTEM (eV)
  free  energy   TOTEN  =     -1387.36415181 eV

  energy  without entropy=    -1387.36415181  energy(sigma->0) =    -1387.36415181

 d Force = 0.3599236E-03[ 0.192E-03, 0.528E-03]  d Energy = 0.3711571E-03-0.112E-04
 d Force =-0.7921079E+00[-0.805E+00,-0.779E+00]  d Ewald  =-0.7921030E+00-0.489E-05

 stress matrix after NEB project (eV)
      3.83475      0.00018     -0.02462
      0.00018      4.61881     -0.00021
     -0.02464     -0.00021      3.98539
  FORCES: max atom, RMS     0.008248    0.004415
  FORCE total and by dimension    0.027570    0.006858
  Stress total and by dimension    7.205780    4.618812
 Conjugate gradient step on ions:
 trial-energy change:   -0.000371  1 .order   -0.000360   -0.000528   -0.000192
  (g-gl).g = 0.901E-04      g.g   = 0.888E-04  gl.gl    = 0.167E-03
 g(Force)  = 0.888E-04   g(Stress)= 0.000E+00 ortho     =-0.132E-05
 gamma     =   0.54071
 trial     =   5.98858
 opt step  =   8.64743  (harmonic =   9.41874) maximal distance =0.00888624
 next E    = -1387.364195   (d E  =  -0.00041)

 reached required accuracy - stopping structural energy minimisation

 total charge

# of ion       s       p       d       tot
    1        1.787   4.722   0.022   6.530
    2        1.786   4.721   0.020   6.528
    3        1.786   4.721   0.019   6.526
    4        1.786   4.721   0.019   6.527
    5        1.787   4.721   0.021   6.528
    6        1.787   4.722   0.021   6.530
    7        1.786   4.721   0.020   6.528
    8        1.555   0.418   9.833  11.806
    9        1.555   0.419   9.834  11.808
   10        1.555   0.416   9.833  11.804
   11        1.555   0.421   9.834  11.810
   12        1.555   0.416   9.833  11.804
   13        1.555   0.421   9.834  11.810
   14        1.555   0.418   9.833  11.806
   15        1.555   0.419   9.834  11.808
   16        1.615   3.284   0.006   4.905
   17        1.614   3.289   0.006   4.910
   18        1.614   3.291   0.006   4.911
   19        1.614   3.290   0.006   4.910
   20        1.615   3.290   0.006   4.910
   21        1.615   3.285   0.007   4.906
   22        1.614   3.291   0.006   4.911
   23        1.614   3.291   0.006   4.911
   24        1.614   3.289   0.006   4.908
   25        1.614   3.288   0.006   4.908
   26        1.614   3.289   0.006   4.909
   27        1.615   3.279   0.006   4.900
   28        1.615   3.288   0.006   4.909
   29        1.614   3.288   0.006   4.908
   30        1.615   3.288   0.006   4.908
   31        1.614   3.288   0.006   4.909
   32        1.614   3.289   0.006   4.908
   33        1.614   3.288   0.006   4.908
   34        1.614   3.289   0.006   4.909
   35        1.615   3.279   0.006   4.900
   36        1.615   3.288   0.006   4.908
   37        1.614   3.288   0.006   4.909
   38        1.615   3.288   0.006   4.909
   39        1.614   3.288   0.006   4.908
tot         63.685 115.304  78.954 257.943