 vasp.5.4.4.18Apr17-6-g9f103f2a35 (build Jun 22 2020 09:27:21) complex

 INCAR:
 POTCAR:    PAW_PBE Cs_sv 08Apr2002
 POTCAR:    PAW_PBE Pb_d 06Sep2000
 POTCAR:    PAW_PBE Br 06Sep2000
 POTCAR:    PAW_PBE Cs_sv 08Apr2002
   VRHFIN =Cs: 5s5p6s

   TITEL  = PAW_PBE Cs_sv 08Apr2002
   POMASS =  132.900; ZVAL   =    9.000    mass and valenz
   ENMAX  =  220.318; ENMIN  =  165.238 eV

   TITEL  = PAW_PBE Pb_d 06Sep2000
   POMASS =  207.200; ZVAL   =   14.000    mass and valenz
   ENMAX  =  237.835; ENMIN  =  178.376 eV

   TITEL  = PAW_PBE Br 06Sep2000
   POMASS =   79.904; ZVAL   =    7.000    mass and valenz
   ENMAX  =  216.285; ENMIN  =  162.214 eV

 Optimization of the real space projectors (new method)

 maximal supplied QI-value         = 15.12
 optimisation between [QCUT,QGAM] = [  8.77, 17.69] = [ 21.53, 87.61] Ry
 Optimized for a Real-space Cutoff    1.85 Angstroem

   l    n(q)    QCUT    max X(q) W(low)/X(q) W(high)/X(q)  e(spline)
   0     10     8.768    25.322    0.81E-04    0.51E-04    0.48E-06
   0     10     8.768    99.187    0.78E-04    0.50E-04    0.47E-06
   1      9     8.768    11.761    0.21E-03    0.20E-03    0.37E-06
   1      9     8.768     8.275    0.24E-03    0.22E-03    0.41E-06
   2      9     8.768     3.829    0.23E-04    0.15E-03    0.18E-06
 Optimization of the real space projectors (new method)

[...]

   l    n(q)    QCUT    max X(q) W(low)/X(q) W(high)/X(q)  e(spline)
   2      7     8.768     3.846    0.48E-04    0.11E-03    0.11E-06
   2      7     8.768     8.593    0.20E-03    0.22E-04    0.24E-06
   0      8     8.768    20.082    0.68E-04    0.88E-04    0.41E-07
   0      8     8.768     8.597    0.89E-04    0.13E-03    0.59E-07
   1      8     8.768    33.223    0.15E-03    0.53E-04    0.87E-07
   1      8     8.768    15.899    0.14E-03    0.44E-04    0.78E-07
 Optimization of the real space projectors (new method)

 maximal supplied QI-value         = 17.95
 optimisation between [QCUT,QGAM] = [  8.80, 17.59] = [ 21.67, 86.68] Ry
 Optimized for a Real-space Cutoff    1.59 Angstroem

   l    n(q)    QCUT    max X(q) W(low)/X(q) W(high)/X(q)  e(spline)
   0      8     8.797   175.082    0.82E-04    0.14E-03    0.89E-07
   0      8     8.797   174.004    0.79E-04    0.14E-03    0.86E-07
   1      8     8.797    54.315    0.16E-03    0.14E-04    0.30E-06
   1      8     8.797    42.441    0.16E-03    0.14E-04    0.30E-06
   2      7     8.797     3.596    0.92E-04    0.15E-03    0.85E-07
  PAW_PBE Cs_sv 08Apr2002               :
  PAW_PBE Pb_d 06Sep2000                :
  PAW_PBE Br 06Sep2000                  :

 POSCAR: Cs8 Pb8 Br23
  positions in direct lattice

 METAGGA = SCAN     LMAXTAU =  6    LMIXTAU =  F

 VTST: version 3.2, (02/03/18)

 CHAIN: initializing optimizer

 OPT: Using VASP Conjugate-Gradient optimizer
 CHAIN: Read ICHAIN            0

 POSCAR: Cs8 Pb8 Br23
  positions in direct lattice

 ion  position               nearest neighbor table
   1  0.273  0.249  0.210-
   2  0.774  0.247  0.704-
   3  0.711  0.751  0.264-
   4  0.217  0.746  0.773-
   5  0.251  0.235  0.732-
   6  0.803  0.250  0.228-
   7  0.753  0.766  0.811-
   8  0.216  0.754  0.277-
   9  0.004  0.004  0.001-  29 2.95  19 2.97  32 2.97  21 2.98  30 3.02  35 3.02
  10  0.500  0.996  0.509-  20 2.89  31 2.96  34 2.96  28 3.01  33 3.01
  11  0.505  0.005  0.008-  17 2.98  30 2.98  28 2.99  32 2.99  22 3.01  34 3.07
  12  0.999  0.996  0.495-  35 2.96  18 2.96  23 2.98  33 3.00  29 3.02  31 3.05
  13  0.500  0.506  0.001-  26 2.92  17 2.95  24 2.97  22 2.97  36 2.99
  14  0.996  0.501  0.495-  18 2.96  37 2.96  23 2.98  27 2.99  38 3.03  25 3.08
  15  0.001  0.500  0.996-  19 2.96  38 2.98  21 2.98  36 3.01  27 3.02  24 3.04
  16  0.492  0.488  0.488-  39 2.57  25 2.94  20 2.97  26 2.99  37 3.02
  17  0.480  0.755  0.971-  13 2.95  11 2.98
  18  0.965  0.749  0.456-  12 2.96  14 2.96
  19  0.969  0.252  0.962-  15 2.96   9 2.97
  20  0.457  0.238  0.495-  10 2.89  16 2.97
  21  0.029  0.752  0.019-   9 2.98  15 2.98
  22  0.533  0.258  0.043-  13 2.97  11 3.01
  23  0.019  0.249  0.517-  14 2.98  12 2.98
  24  0.251  0.466  0.945-  13 2.97  15 3.04
  25  0.737  0.465  0.446-  16 2.94  14 3.08
  26  0.449  0.544  0.240-  13 2.92  16 2.99
  27  0.946  0.530  0.742-  14 2.99  15 3.02
  28  0.556  0.031  0.761-  11 2.99  10 3.01
  29  0.057  0.035  0.249-   9 2.95  12 3.02
  30  0.757  0.975  0.058-  11 2.98   9 3.02
  31  0.254  0.955  0.548-  10 2.96  12 3.05
  32  0.252  0.029  0.959-   9 2.97  11 2.99
  33  0.746  0.030  0.451-  12 3.00  10 3.01
  34  0.453  0.961  0.259-  10 2.96  11 3.07
  35  0.964  0.980  0.744-  12 2.96   9 3.02
  36  0.752  0.533  0.045-  13 2.99  15 3.01
  37  0.246  0.528  0.547-  14 2.96  16 3.02
  38  0.053  0.468  0.247-  15 2.98  14 3.03
  39  0.534  0.626  0.657-  16 2.57

IMPORTANT INFORMATION: All symmetrisations will be switched off!
NOSYMM: (Re-)initialisation of all symmetry stuff for point group C_1.

 KPOINTS: 1x1x1

Automatic generation of k-mesh.
Space group operators:
 irot       det(A)        alpha          n_x          n_y          n_z        tau_x        tau_y        tau_z
    1     1.000000     0.000001     1.000000     0.000000     0.000000     0.000000     0.000000     0.000000

 Subroutine IBZKPT returns following result:

 Found      8 irreducible k-points:

 Following reciprocal coordinates:
            Coordinates               Weight
  0.000000  0.000000  0.000000      1.000000
  0.500000  0.000000  0.000000      1.000000
  0.000000  0.500000  0.000000      1.000000
  0.500000  0.500000  0.000000      1.000000
  0.000000  0.000000  0.500000      1.000000
  0.500000  0.000000  0.500000      1.000000
  0.000000  0.500000  0.500000      1.000000
  0.500000  0.500000  0.500000      1.000000

 Following cartesian coordinates:
            Coordinates               Weight
 -0.000000  0.000000  0.000000      1.000000
  0.029563  0.000000  0.031093      1.000000
 -0.000000  0.042626  0.000000      1.000000
  0.029563  0.042626  0.031093      1.000000
 -0.029563  0.000000  0.031093      1.000000
  0.000000  0.000000  0.062187      1.000000
 -0.029563  0.042626  0.031093      1.000000
  0.000000  0.042626  0.062187      1.000000

 SYSTEM =  CsPbBr3 cubic bulk
 POSCAR =  Cs8 Pb8 Br23

 Startparameter for this run:
   NWRITE =      2    write-flag & timer
   PREC   = accura    normal or accurate (medium, high low for compatibility)
   ISTART =      0    job   : 0-new  1-cont  2-samecut
   ICHARG =      2    charge: 1-file 2-atom 10-const
   ISPIN  =      1    spin polarized calculation?
   LNONCOLLINEAR =      F non collinear calculations
   LSORBIT =      F    spin-orbit coupling
   INIWAV =      1    electr: 0-lowe 1-rand  2-diag
   LASPH  =      T    aspherical Exc in radial PAW
   METAGGA=      F    non-selfconsistent MetaGGA calc.

 Electronic Relaxation 1
   ENCUT  =  300.0 eV  22.05 Ry    4.70 a.u.  16.48 16.57 16.48*2*pi/ulx,y,z
   ENINI  =  300.0     initial cutoff
   ENAUG  =  503.9 eV  augmentation charge cutoff
   NELM   =    200;   NELMIN=  2; NELMDL= -5     # of ELM steps
   EDIFF  = 0.1E-05   stopping-criterion for ELM
   LREAL  =      T    real-space projection
   NLSPLINE    = F    spline interpolate recip. space projectors
   LCOMPAT=      F    compatible to vasp.4.4
   GGA_COMPAT  = T    GGA compatible to vasp.4.4-vasp.4.6
   LMAXPAW     = -100 max onsite density
   LMAXMIX     =    2 max onsite mixed and CHGCAR
   VOSKOWN=      0    Vosko Wilk Nusair interpolation
   ROPT   =   -0.00025  -0.00025  -0.00025
 Ionic relaxation
   EDIFFG = -.1E-01   stopping-criterion for IOM
   NSW    =      0    number of steps for IOM
   NBLOCK =      1;   KBLOCK =      1    inner block; outer block
   IBRION =     -1    ionic relax: 0-MD 1-quasi-New 2-CG
   NFREE  =      1    steps in history (QN), initial steepest desc. (CG)
   ISIF   =      2    stress and relaxation
   IWAVPR =     10    prediction:  0-non 1-charg 2-wave 3-comb
   ISYM   =      0    0-nonsym 1-usesym 2-fastsym
   LCORR  =      T    Harris-Foulkes like correction to forces

   POTIM  = 0.5000    time-step for ionic-motion
   TEIN   =    0.0    initial temperature
   TEBEG  =    0.0;   TEEND  =   0.0 temperature during run
   SMASS  =  -3.00    Nose mass-parameter (am)
   estimated Nose-frequenzy (Omega)   =  0.10E-29 period in steps =****** mass=  -0.311E-26a.u.
   SCALEE = 1.0000    scale energy and forces
   NPACO  =    256;   APACO  = 16.0  distance and # of slots for P.C.
   PSTRESS=    0.0 pullay stress

  Mass of Ions in am
   POMASS = 132.90207.20 79.90
  Ionic Valenz
   ZVAL   =   9.00 14.00  7.00
  Atomic Wigner-Seitz radii
  virtual crystal weights
   VCA    =   1.00  1.00  1.00
   NELECT =     344.0000    total number of electrons
   NUPDOWN=       0.0000    fix difference up-down

 DOS related values:
   EMIN   =  10.00;   EMAX   =-10.00  energy-range for DOS
   EFERMI =   0.00
   ISMEAR =     0;   SIGMA  =   0.01  broadening in eV -4-tet -1-fermi 0-gaus

 Electronic relaxation 2 (details)
   IALGO  =     38    algorithm
   LDIAG  =      T    sub-space diagonalisation (order eigenvalues)
   LSUBROT=      F    optimize rotation matrix (better conditioning)
   TURBO    =      0    0=normal 1=particle mesh
   IRESTART =      0    0=no restart 2=restart with 2 vectors
   NREBOOT  =      0    no. of reboots
   NMIN     =      0    reboot dimension
   EREF     =   0.00    reference energy to select bands
   IMIX   =      4    mixing-type and parameters
     AMIX     =   0.40;   BMIX     =  1.00
     AMIX_MAG =   1.60;   BMIX_MAG =  1.00
     AMIN     =   0.10
     WC   =   100.;   INIMIX=   1;  MIXPRE=   1;  MAXMIX= -45

 Intra band minimization:
   WEIMIN = 0.0000     energy-eigenvalue tresh-hold
   EBREAK =  0.12E-08  absolut break condition
   DEPER  =   0.30     relativ break condition

   TIME   =   0.40     timestep for ELM

  volume/ion in A,a.u.               =      40.90       276.00
  Fermi-wavevector in a.u.,A,eV,Ry     =   0.981747  1.855232 13.113654  0.963826
  Thomas-Fermi vector in A             =   2.112777

 Write flags
   LWAVE        =      F    write WAVECAR
   LDOWNSAMPLE  =      F    k-point downsampling of WAVECAR
   LCHARG       =      F    write CHGCAR
   LVTOT        =      F    write LOCPOT, total local potential
   LVHAR        =      T    write LOCPOT, Hartree potential only
   LELF         =      F    write electronic localiz. function (ELF)
   LORBIT       =     10    0 simple, 1 ext, 2 COOP (PROOUT), +10 PAW based schemes

 Dipole corrections
   LMONO  =      F    monopole corrections only (constant potential shift)
   LDIPOL =      F    correct potential (dipole corrections)
   IDIPOL =      0    1-x, 2-y, 3-z, 4-all directions
   EPSILON=  1.0000000 bulk dielectric constant

 Exchange correlation treatment:
   GGA     =    --    GGA type
   VOSKOWN=      0    Vosko Wilk Nusair interpolation
   LHFCALC =     F    Hartree Fock is set to
   LHFONE  =     F    Hartree Fock one center treatment
   AEXX    =    0.0000 exact exchange contribution

 Linear response parameters
   LEPSILON=     F    determine dielectric tensor
   LRPA    =     F    only Hartree local field effects (RPA)
[...]
     14     -16.5936      2.00000
     15     -16.5924      2.00000
     16     -16.5890      2.00000
     17     -16.5874      2.00000
     18     -16.5478      2.00000
     19     -16.5431      2.00000
     20     -16.4899      2.00000
     21     -16.4451      2.00000
     22     -16.4442      2.00000
     23     -16.4367      2.00000
     24     -16.4060      2.00000
     25     -16.4045      2.00000
     26     -16.4032      2.00000
     27     -16.4003      2.00000
     28     -16.3875      2.00000
     29     -16.3841      2.00000
     30     -16.3822      2.00000
     31     -16.3565      2.00000
     32     -16.3348      2.00000
     33     -16.3333      2.00000
     34     -16.3273      2.00000
     35     -16.3198      2.00000
     36     -16.2931      2.00000
     37     -16.2906      2.00000
     38     -16.2856      2.00000
     39     -16.2851      2.00000
     40     -16.2790      2.00000
     41     -16.2789      2.00000
     42     -16.2696      2.00000
     43     -16.2678      2.00000
     44     -16.2638      2.00000
     45     -16.2568      2.00000
     46     -16.2353      2.00000
     47     -16.2313      2.00000
     48     -16.2211      2.00000
     49     -14.4921      2.00000
     50     -14.3786      2.00000
     51     -14.3001      2.00000
     52     -14.2366      2.00000
     53     -14.2232      2.00000
     54     -14.2139      2.00000
     55     -14.2116      2.00000
     56     -14.1574      2.00000
     57     -14.0748      2.00000
     58     -14.0673      2.00000
     59     -13.9330      2.00000
     60     -13.9239      2.00000
[...]
    194       4.8388      0.00000
    195       4.8951      0.00000
    196       5.0387      0.00000
    197       5.9261      0.00000
    198       6.1174      0.00000
    199       6.1424      0.00000
    200       6.2200      0.00000
    201       6.2448      0.00000
    202       6.2914      0.00000
    203       6.3097      0.00000
    204       6.4069      0.00000
    205       6.4566      0.00000
    206       6.4759      0.00000
    207       6.5296      0.00000
    208       6.5483      0.00000

 soft charge-density along one line, spin component           1
         0         1         2         3         4         5         6         7         8         9
 total charge-density along one line

------------------------ aborting loop because EDIFF is reached ----------------------------------------

 total charge

# of ion       s       p       d       tot
    1        1.785   4.716   0.017   6.519
    2        1.785   4.716   0.017   6.518
    3        1.785   4.716   0.018   6.519
    4        1.785   4.716   0.017   6.519
    5        1.785   4.717   0.017   6.519
    6        1.786   4.717   0.018   6.520
    7        1.787   4.717   0.022   6.526
    8        1.786   4.717   0.019   6.521
    9        1.553   0.423   9.835  11.811
   10        1.531   0.436   9.830  11.797
   11        1.553   0.412   9.833  11.798
   12        1.553   0.418   9.834  11.806
   13        1.534   0.430   9.831  11.795
   14        1.553   0.416   9.833  11.802
   15        1.554   0.416   9.834  11.804
   16        1.535   0.507   9.839  11.881
   17        1.615   3.281   0.007   4.903
   18        1.615   3.286   0.007   4.907
   19        1.615   3.284   0.007   4.905
   20        1.617   3.268   0.008   4.893
   21        1.614   3.287   0.007   4.908
   22        1.614   3.280   0.006   4.901
   23        1.614   3.288   0.007   4.909
   24        1.614   3.279   0.006   4.899
   25        1.614   3.280   0.006   4.900
   26        1.617   3.270   0.007   4.894
   27        1.614   3.279   0.006   4.899
   28        1.614   3.278   0.006   4.898
   29        1.615   3.285   0.007   4.906
   30        1.614   3.285   0.006   4.905
   31        1.614   3.280   0.006   4.899
   32        1.614   3.284   0.006   4.905
   33        1.614   3.278   0.006   4.898
   34        1.614   3.277   0.006   4.897
   35        1.614   3.284   0.006   4.904
   36        1.614   3.280   0.006   4.900
   37        1.615   3.278   0.006   4.899
   38        1.614   3.280   0.006   4.900
   39        1.619   3.295   0.012   4.926
tot         63.790 116.657  78.966 259.413

  FORCE on cell =-STRESS in cart. coord.  units (eV):
  Direction    XX          YY          ZZ          XY          YZ          ZX
  Alpha Z   872.70584   872.70584   872.70584
  Ewald   -5969.76034 -5949.10240 -5998.31381   -53.53946   146.28491   146.82027
  Hartree  2513.70743  2478.75488  2481.12057   -26.77078    79.06084   104.99552
  E(xc)   -1449.61766 -1449.46143 -1449.42833    -0.01371     0.19483     0.06428
  Local   -2935.99716 -2918.79806 -2876.69920    79.66952  -225.08334  -253.25812
  n-local  1748.74653  1750.03687  1749.39031    -1.80157     2.92490    -0.07805
  augment   818.30426   817.03626   817.31412    -0.23595     0.24665     0.42936
  Kinetic  4395.22892  4395.83233  4401.17736     2.39739    -1.13927     0.53946
  Fock        0.00000     0.00000     0.00000     0.00000     0.00000     0.00000
  Total      -6.68218    -2.99570    -2.73315    -0.29457     2.48952    -0.48727
  in kB      -6.71188    -3.00902    -2.74530    -0.29588     2.50059    -0.48943

 VOLUME and BASIS-vectors are now :
  energy-cutoff  :      300.00
  volume of cell :     1595.09
      direct lattice vectors                 reciprocal lattice vectors
     8.456489000  0.000000000  8.040301000     0.059126193 -0.000000000  0.062186727
     0.000000000 11.729847000  0.000000000     0.000000000  0.085252604 -0.000000000
    -8.456489000  0.000000000  8.040301000    -0.059126193  0.000000000  0.062186727

  length of vectors
    11.668703715 11.729847000 11.668703715     0.085808482  0.085252604  0.085808482

 FORCES acting on ions
    electron-ion (+dipol)            ewald-force                    non-local-force                 convergence-correction
   0.142E+02 -.900E+01 -.317E+02   -.142E+02 0.891E+01 0.316E+02   -.180E-01 0.107E+00 0.184E+00   -.542E-04 0.118E-03 0.935E-04
   0.704E+02 -.346E+02 0.209E+02   -.698E+02 0.342E+02 -.206E+02   -.537E+00 0.389E+00 -.329E+00   0.905E-04 0.116E-03 -.108E-03
   0.290E+02 0.857E+01 -.221E+02   -.285E+02 -.850E+01 0.221E+02   -.438E+00 -.973E-01 0.118E-02   0.117E-05 -.116E-03 0.981E-06
   -.442E+02 0.511E+01 -.838E+01   0.442E+02 -.515E+01 0.847E+01   0.148E-01 0.327E-01 -.844E-01   0.980E-04 -.886E-04 -.283E-04
   -.219E+02 -.282E+02 -.317E+02   0.218E+02 0.281E+02 0.314E+02   0.168E+00 0.163E+00 0.237E+00   0.894E-04 0.722E-04 -.699E-04
   0.444E+02 -.963E+01 0.289E+02   -.443E+02 0.962E+01 -.289E+02   -.951E-01 0.150E-01 0.261E-01   -.157E-03 0.129E-03 0.268E-04
   -.314E+02 0.200E+02 0.616E+02   0.312E+02 -.200E+02 -.614E+02   0.136E+00 0.726E-01 -.501E-01   0.274E-04 -.112E-03 -.138E-04
   -.322E+02 0.109E+02 -.307E+02   0.320E+02 -.108E+02 0.304E+02   0.161E+00 -.109E+00 0.277E+00   -.174E-04 -.126E-03 0.559E-04
   -.148E+01 0.101E+01 0.116E+02   0.152E+01 -.126E+01 -.126E+02   -.341E-01 0.246E+00 0.106E+01   0.184E-04 0.604E-04 -.117E-03
   -.390E+01 0.104E+03 -.358E+02   0.424E+01 -.110E+03 0.376E+02   -.347E+00 0.563E+01 -.189E+01   -.453E-04 0.641E-03 -.494E-04
   -.317E+01 -.251E+02 0.571E+01   0.231E+01 0.255E+02 -.528E+01   0.913E+00 -.407E+00 -.405E+00   0.106E-03 0.471E-04 -.287E-04
   0.684E+01 0.212E+02 -.509E+00   -.590E+01 -.212E+02 0.673E+00   -.895E+00 0.217E-01 -.197E+00   -.927E-04 0.116E-03 0.151E-04
   -.981E+02 0.395E+02 0.630E+02   0.102E+03 -.403E+02 -.660E+02   -.459E+01 0.821E+00 0.307E+01   -.361E-03 0.458E-04 0.327E-03
   0.211E+02 -.159E+02 0.428E+01   -.215E+02 0.156E+02 -.564E+01   0.466E+00 0.274E+00 0.130E+01   -.141E-03 -.118E-03 -.100E-04
   -.458E+01 0.280E+00 0.119E+02   0.503E+01 0.124E+00 -.120E+02   -.416E+00 -.402E+00 0.198E-01   -.168E-05 -.541E-04 -.114E-03
   0.485E+01 0.448E+01 -.147E+02   -.283E+01 -.901E+01 0.941E+01   -.141E+01 0.370E+01 0.444E+01   0.999E-04 -.247E-03 0.911E-04
   -.203E+01 0.836E+01 0.384E+02   0.203E+01 -.830E+01 -.387E+02   -.786E-02 -.129E-01 0.310E+00   0.136E-04 -.582E-04 -.297E-05
   0.258E+02 0.499E+01 0.357E+02   -.258E+02 -.499E+01 -.361E+02   0.609E-01 0.202E-01 0.284E+00   -.776E-04 -.997E-04 0.210E-04
   -.535E+01 -.712E+01 0.476E+02   0.546E+01 0.707E+01 -.479E+02   -.976E-01 0.321E-01 0.324E+00   -.107E-04 0.734E-04 -.760E-04
   0.128E+02 -.242E+02 0.783E+01   -.129E+02 0.245E+02 -.815E+01   0.290E-01 -.799E+00 0.375E+00   0.384E-04 0.129E-03 0.111E-03
   0.385E+01 0.845E+01 -.280E+02   -.393E+01 -.849E+01 0.281E+02   0.624E-01 0.304E-01 -.179E+00   0.216E-04 -.740E-04 -.312E-04
   -.255E+02 -.102E+02 -.191E+02   0.256E+02 0.101E+02 0.195E+02   -.753E-01 0.171E-01 -.311E+00   0.359E-04 0.750E-04 0.212E-04
   -.118E+02 -.736E+01 -.260E+02   0.120E+02 0.738E+01 0.261E+02   -.138E+00 -.281E-01 -.998E-01   -.329E-04 0.908E-04 -.978E-05
   -.475E+02 0.217E+02 0.210E+02   0.476E+02 -.219E+02 -.213E+02   -.144E+00 0.205E+00 0.265E+00   0.768E-04 0.815E-05 0.148E-04
   -.332E+01 0.443E+01 0.169E+02   0.364E+01 -.455E+01 -.170E+02   -.205E+00 0.926E-01 0.849E-01   -.131E-03 -.427E-04 -.321E-04
   0.361E+02 -.328E+02 0.192E+01   -.365E+02 0.329E+02 -.203E+01   0.769E+00 -.790E-01 -.191E+00   0.822E-05 -.102E-03 0.110E-03
   0.304E+02 -.172E+02 0.413E+02   -.306E+02 0.173E+02 -.415E+02   0.239E+00 -.162E+00 0.214E+00   0.102E-04 -.666E-04 -.124E-03
   -.296E+02 -.236E+02 -.689E+01   0.299E+02 0.238E+02 0.709E+01   -.251E+00 -.166E+00 -.202E+00   0.629E-06 0.114E-03 -.580E-04
   -.148E+02 -.175E+02 -.386E+02   0.150E+02 0.177E+02 0.390E+02   -.128E+00 -.209E+00 -.361E+00   -.564E-04 0.634E-04 0.438E-04
   0.278E+02 0.842E+01 -.187E+02   -.280E+02 -.854E+01 0.190E+02   0.172E+00 0.118E+00 -.299E+00   -.555E-04 0.441E-04 -.575E-04
   0.592E+01 0.362E+02 -.353E+02   -.618E+01 -.364E+02 0.354E+02   0.247E+00 0.201E+00 -.916E-01   0.130E-04 0.299E-04 0.524E-04
   -.368E+02 -.114E+02 0.114E+02   0.370E+02 0.115E+02 -.116E+02   -.194E+00 -.708E-01 0.185E+00   0.918E-04 0.184E-04 0.145E-04
   0.539E+01 -.267E+01 0.371E+02   -.519E+01 0.288E+01 -.374E+02   -.194E+00 -.194E+00 0.301E+00   -.542E-04 0.124E-03 -.142E-04
   0.201E+02 0.292E+02 0.107E+02   -.202E+02 -.294E+02 -.111E+02   0.111E+00 0.190E+00 0.330E+00   0.148E-04 0.523E-04 0.673E-04
   0.189E+02 0.178E+02 0.254E+02   -.191E+02 -.178E+02 -.254E+02   0.191E+00 0.559E-01 0.611E-01   0.311E-04 0.494E-04 -.638E-04
   0.191E+02 -.131E+01 0.107E+01   -.192E+02 0.145E+01 -.840E+00   0.173E+00 -.142E+00 -.226E+00   -.631E-04 -.773E-04 -.464E-04
   0.532E+01 -.187E+02 -.500E+02   -.546E+01 0.190E+02 0.504E+02   0.266E-01 -.232E+00 -.519E+00   0.640E-04 -.720E-04 0.688E-04
   -.177E+02 0.118E+02 -.337E+02   0.178E+02 -.120E+02 0.341E+02   -.135E+00 0.168E+00 -.333E+00   -.687E-04 -.252E-04 0.579E-04
   0.395E+02 -.794E+02 -.800E+02   -.404E+02 0.805E+02 0.811E+02   0.112E+00 -.454E-01 0.938E-02   0.676E-04 -.213E-03 -.607E-04
   0.644E+01 -.946E+01 -.764E+01   -.213E-13 0.426E-13 -.284E-13   -.630E+01 0.945E+01 0.759E+01   -.403E-03 0.523E-03 0.771E-04

 POSITION                                       TOTAL-FORCE (eV/Angst)
      0.53663      2.92155      3.88597        -0.017237      0.026370      0.014531
      0.59169      2.89812     11.88502         0.010216      0.014552     -0.008748
      3.78320      8.81182      7.84210        -0.001248     -0.028685     -0.004018
     -4.70431      8.74665      7.96501         0.002902     -0.014720     -0.008080
     -4.06989      2.75445      7.90114        -0.011195      0.000334     -0.031581
      4.86162      2.93089      8.29098        -0.016880      0.012395      0.015721
     -0.49268      8.98619     12.57323         0.012732      0.063822      0.139275
     -0.51617      8.84894      3.97032        -0.017761     -0.014704     -0.007051
      0.03061      0.04178      0.04129        -0.005650     -0.003584      0.009435
     -0.07662     11.68098      8.10847        -0.020242      0.206340     -0.040490
      4.20577      0.06089      4.12688         0.037401      0.002058      0.016871
      4.25958     11.68647     12.01390         0.021038     -0.002121     -0.028073
      4.21896      5.93321      4.02242        -0.189576      0.053620      0.116794
      4.23538      5.87163     11.99266         0.014124     -0.008205     -0.033676
     -8.41493      5.86056      8.01541         0.017795     -0.000676      0.001113
      0.03123      5.72740      7.88225         0.606165     -0.858099     -0.913611
     -4.15241      8.85200     11.66080        -0.006690      0.029103      0.014430
      4.30084      8.78106     11.42834        -0.007141      0.016499     -0.000648
      0.05943      2.95259     15.52523         0.002871      0.000099     -0.001520
     -0.31838      2.79112      7.65624        -0.038431     -0.495205      0.074214
      0.08643      8.81640      0.38240        -0.004309      0.006320     -0.006724
      4.14698      3.02359      4.63208         0.000879      0.000562      0.001768
     -4.21766      2.91630      4.30873        -0.005574     -0.021294     -0.001390
     -5.86375      5.46441      9.61855         0.008861      0.000960      0.013242
      2.46032      5.45217      9.51025         0.100377     -0.018105      0.059192
      1.76475      6.38133      5.54163         0.348661      0.062954     -0.300749
      1.72280      6.21330     13.57377        -0.009560      0.001574      0.011660
     -1.73612      0.35818     10.58446        -0.002440      0.001562     -0.014969
     -1.62766      0.41090      2.45819         0.004485      0.004497     -0.009880
      5.90478     11.43238      6.55455        -0.012960     -0.001458     -0.003364
     -2.48018     11.20148      6.44830        -0.000955     -0.005242      0.007927
     -5.97680      0.33972      9.74103         0.009370     -0.005398      0.022373
      2.49720      0.34990      9.62405        -0.011362     -0.006521     -0.005825
      1.63467     11.27080      5.72545        -0.003223     -0.001980      0.008211
      1.85840     11.49724     13.72772        -0.007171     -0.012498      0.013448
      5.98348      6.25505      6.41160        -0.006231     -0.001574     -0.004357
     -2.54216      6.19049      6.37514        -0.106836     -0.007700     -0.109274
     -1.63482      5.48970      2.41409         0.016887      0.002174     -0.016827
     -1.04014      7.34698      9.57115        -0.712093      1.001972      1.010647
    total drift:                                0.135103     -0.011355     -0.047682

  FREE ENERGIE OF THE ION-ELECTRON SYSTEM (eV)
  free  energy   TOTEN  =     -1409.21250595 eV

  energy  without entropy=    -1409.21250595  energy(sigma->0) =    -1409.21250595

 stress matrix after NEB project (eV)
     -6.68218     -0.29448     -0.48727
     -0.29457     -2.99570      2.48938
     -0.48738      2.48952     -2.73315
  FORCES: max atom, RMS     1.591362    0.362049
  FORCE total and by dimension    2.260993    1.010647
  Stress total and by dimension    8.610411    6.682185

 total charge

# of ion       s       p       d       tot
    1        1.785   4.716   0.017   6.519
    2        1.785   4.716   0.017   6.518
    3        1.785   4.716   0.018   6.519
    4        1.785   4.716   0.017   6.519
    5        1.785   4.717   0.017   6.519
    6        1.786   4.717   0.018   6.520
    7        1.787   4.717   0.022   6.526
    8        1.786   4.717   0.019   6.521
    9        1.553   0.423   9.835  11.811
   10        1.531   0.436   9.830  11.797
   11        1.553   0.412   9.833  11.798
   12        1.553   0.418   9.834  11.806
   13        1.534   0.430   9.831  11.795
   14        1.553   0.416   9.833  11.802
   15        1.554   0.416   9.834  11.804
   16        1.535   0.507   9.839  11.881
   17        1.615   3.281   0.007   4.903
   18        1.615   3.286   0.007   4.907
   19        1.615   3.284   0.007   4.905
   20        1.617   3.268   0.008   4.893
   21        1.614   3.287   0.007   4.908
   22        1.614   3.280   0.006   4.901
   23        1.614   3.288   0.007   4.909
   24        1.614   3.279   0.006   4.899
   25        1.614   3.280   0.006   4.900
   26        1.617   3.270   0.007   4.894
   27        1.614   3.279   0.006   4.899
   28        1.614   3.278   0.006   4.898
   29        1.615   3.285   0.007   4.906
   30        1.614   3.285   0.006   4.905
   31        1.614   3.280   0.006   4.899
   32        1.614   3.284   0.006   4.905
   33        1.614   3.278   0.006   4.898
   34        1.614   3.277   0.006   4.897
   35        1.614   3.284   0.006   4.904
   36        1.614   3.280   0.006   4.900
   37        1.615   3.278   0.006   4.899
   38        1.614   3.280   0.006   4.900
   39        1.619   3.295   0.012   4.926
tot         63.790 116.657  78.966 259.413