 vasp.5.4.4.18Apr17-6-g9f103f2a35 (build Jun 22 2020 09:27:21) complex

 INCAR:
 POTCAR:    PAW_PBE Cs_sv 08Apr2002
 POTCAR:    PAW_PBE Pb_d 06Sep2000
 POTCAR:    PAW_PBE Br 06Sep2000
 POTCAR:    PAW_PBE Cs_sv 08Apr2002
   VRHFIN =Cs: 5s5p6s

   TITEL  = PAW_PBE Cs_sv 08Apr2002
   POMASS =  132.900; ZVAL   =    9.000    mass and valenz
   ENMAX  =  220.318; ENMIN  =  165.238 eV

 POTCAR:    PAW_PBE Pb_d 06Sep2000
   VRHFIN =Pb:

   TITEL  = PAW_PBE Pb_d 06Sep2000
   POMASS =  207.200; ZVAL   =   14.000    mass and valenz
   ENMAX  =  237.835; ENMIN  =  178.376 eV

 POTCAR:    PAW_PBE Br 06Sep2000
   VRHFIN =Br: s2p5

   TITEL  = PAW_PBE Br 06Sep2000
   POMASS =   79.904; ZVAL   =    7.000    mass and valenz
   ENMAX  =  216.285; ENMIN  =  162.214 eV

 Optimization of the real space projectors (new method)

 maximal supplied QI-value         = 15.12
 optimisation between [QCUT,QGAM] = [  8.77, 17.69] = [ 21.53, 87.61] Ry
 Optimized for a Real-space Cutoff    1.85 Angstroem

   l    n(q)    QCUT    max X(q) W(low)/X(q) W(high)/X(q)  e(spline)
   0     10     8.768    25.322    0.81E-04    0.51E-04    0.48E-06
   0     10     8.768    99.187    0.78E-04    0.50E-04    0.47E-06
   1      9     8.768    11.761    0.21E-03    0.20E-03    0.37E-06
   1      9     8.768     8.275    0.24E-03    0.22E-03    0.41E-06
   2      9     8.768     3.829    0.23E-04    0.15E-03    0.18E-06
 Optimization of the real space projectors (new method)

[...]

   l    n(q)    QCUT    max X(q) W(low)/X(q) W(high)/X(q)  e(spline)
   2      7     8.768     3.846    0.48E-04    0.11E-03    0.11E-06
   2      7     8.768     8.593    0.20E-03    0.22E-04    0.24E-06
   0      8     8.768    20.082    0.68E-04    0.88E-04    0.41E-07
   0      8     8.768     8.597    0.89E-04    0.13E-03    0.59E-07
   1      8     8.768    33.223    0.15E-03    0.53E-04    0.87E-07
   1      8     8.768    15.899    0.14E-03    0.44E-04    0.78E-07
 Optimization of the real space projectors (new method)

 maximal supplied QI-value         = 17.95
 optimisation between [QCUT,QGAM] = [  8.80, 17.59] = [ 21.67, 86.68] Ry
 Optimized for a Real-space Cutoff    1.59 Angstroem

   l    n(q)    QCUT    max X(q) W(low)/X(q) W(high)/X(q)  e(spline)
   0      8     8.797   175.082    0.82E-04    0.14E-03    0.89E-07
   0      8     8.797   174.004    0.79E-04    0.14E-03    0.86E-07
   1      8     8.797    54.315    0.16E-03    0.14E-04    0.30E-06
   1      8     8.797    42.441    0.16E-03    0.14E-04    0.30E-06
   2      7     8.797     3.596    0.92E-04    0.15E-03    0.85E-07
  PAW_PBE Cs_sv 08Apr2002               :
  PAW_PBE Pb_d 06Sep2000                :
  PAW_PBE Br 06Sep2000                  :

 POSCAR: Cs2 Pb2 Br6
  positions in direct lattice
  velocities in cartesian coordinates

 METAGGA = SCAN     LMAXTAU =  6    LMIXTAU =  F

 VTST: version 3.2, (02/03/18)

 CHAIN: initializing optimizer

 OPT: Using VASP Conjugate-Gradient optimizer
 CHAIN: Read ICHAIN            0

 POSCAR: Cs2 Pb2 Br6
  positions in direct lattice
  velocities in cartesian coordinates

 ion  position               nearest neighbor table
   1  0.750  0.750  0.741-
   2  0.250  0.250  0.259-
   3  0.000  0.000  0.000-   9 2.99  10 2.99   7 2.99   8 2.99   5 2.99   6 2.99
   4  0.500  0.500  0.500-   9 2.99  10 2.99   7 2.99   8 2.99   5 2.99   6 2.99
   5  0.206  0.706  0.294-   3 2.99   4 2.99
   6  0.794  0.294  0.706-   3 2.99   4 2.99
   7  0.294  0.794  0.706-   3 2.99   4 2.99
   8  0.706  0.206  0.294-   3 2.99   4 2.99
   9  0.250  0.250  0.829-   3 2.99   4 2.99
  10  0.750  0.750  0.171-   3 2.99   4 2.99

  LATTYP: Found a body centered orthorhombic cell.
 ALAT       =     8.2097476713
 B/A-ratio  =     1.0296593802
 C/A-ratio  =     1.4191243770

  Lattice vectors:

 A1 = (   5.8253265247,  -5.8912570964,   0.0860888462)
 A2 = (   5.8253265247,   5.8912570964,  -0.0860888462)
 A3 = (  -5.8253265247,  -0.0860888462,   5.8912570964)

Analysis of symmetry for initial positions (statically):
 Subroutine PRICEL returns:
 Original cell was already a primitive cell.

 Routine SETGRP: Setting up the symmetry group for a
 body centered orthorhombic supercell.

 Subroutine GETGRP returns: Found  8 space group operations
 (whereof  4 operations were pure point group operations)
 out of a pool of  8 trial point group operations.

The static configuration has the point symmetry C_2h.
 The point group associated with its full space group is D_2h.

Analysis of symmetry for dynamics (positions and initial velocities):
 Subroutine PRICEL returns:
 Original cell was already a primitive cell.

 Routine SETGRP: Setting up the symmetry group for a
 body centered orthorhombic supercell.

 Subroutine GETGRP returns: Found  8 space group operations
 (whereof  4 operations were pure point group operations)
 out of a pool of  8 trial point group operations.

The dynamic configuration has the point symmetry C_2h.
 The point group associated with its full space group is D_2h.

 Subroutine INISYM returns: Found  8 space group operations
 (whereof  4 operations are pure point group operations),
 and found     1 'primitive' translations

 KPOINTS: 1x1x1

Automatic generation of k-mesh.
Space group operators:
 irot       det(A)        alpha          n_x          n_y          n_z        tau_x        tau_y        tau_z
    1     1.000000     0.000000     1.000000     0.000000     0.000000     0.000000     0.000000     0.000000
    2    -1.000000     0.000000     1.000000     0.000000     0.000000     0.000000     0.000000     0.000000
    3     1.000000   180.000000     0.000000     0.707107     0.707107     0.000000     0.000000     0.000000
    4    -1.000000   180.000000     0.000000     0.707107     0.707107     0.000000     0.000000     0.000000
    5     1.000000   180.000000     1.000000     0.000000     0.000000     0.500000     0.500000    -0.500000
    6    -1.000000   180.000000     1.000000     0.000000     0.000000     0.500000     0.500000    -0.500000
    7     1.000000   180.000000     0.000000    -0.707107     0.707107     0.500000     0.500000    -0.500000
    8    -1.000000   180.000000     0.000000    -0.707107     0.707107     0.500000     0.500000    -0.500000

 Subroutine IBZKPT returns following result:

 Found     14 irreducible k-points:

 Following reciprocal coordinates:
            Coordinates               Weight
  0.000000  0.000000  0.000000      1.000000
  0.333333  0.000000  0.000000      4.000000
  0.333333  0.333333  0.000000      2.000000
 -0.333333  0.333333  0.000000      2.000000
  0.000000  0.000000  0.250000      2.000000
  0.333333  0.000000  0.250000      4.000000
 -0.333333  0.000000  0.250000      4.000000
  0.333333  0.333333  0.250000      2.000000
 -0.333333  0.333333  0.250000      4.000000
 -0.333333 -0.333333  0.250000      2.000000
  0.000000  0.000000  0.500000      1.000000
  0.333333  0.000000  0.500000      4.000000
  0.333333  0.333333  0.500000      2.000000
 -0.333333  0.333333  0.500000      2.000000

 Following cartesian coordinates:
            Coordinates               Weight
  0.000000  0.000000 -0.000000      1.000000
  0.028611  0.028710  0.028710      4.000000
  0.057221  0.000000 -0.000000      2.000000
  0.000000 -0.057420 -0.057420      2.000000
 -0.021458  0.020912 -0.020912      2.000000
  0.007153  0.049622  0.007798      4.000000
 -0.050069 -0.007798 -0.049622      4.000000
  0.035763  0.020912 -0.020912      2.000000
 -0.021458 -0.036508 -0.078332      4.000000
 -0.078679  0.020912 -0.020912      2.000000
 -0.042916  0.041825 -0.041825      1.000000
 -0.014305  0.070535 -0.013115      4.000000
  0.014305  0.041825 -0.041825      2.000000
 -0.042916 -0.015596 -0.099245      2.000000

 SYSTEM =  CsPbBr3 cubic bulk
 POSCAR =  Cs2 Pb2 Br6

 Startparameter for this run:
   NWRITE =      2    write-flag & timer
   PREC   = accura    normal or accurate (medium, high low for compatibility)
   ISTART =      0    job   : 0-new  1-cont  2-samecut
   ICHARG =      2    charge: 1-file 2-atom 10-const
   ISPIN  =      1    spin polarized calculation?
   LNONCOLLINEAR =      F non collinear calculations
   LSORBIT =      F    spin-orbit coupling
   INIWAV =      1    electr: 0-lowe 1-rand  2-diag
   LASPH  =      T    aspherical Exc in radial PAW
   METAGGA=      F    non-selfconsistent MetaGGA calc.

 Electronic Relaxation 1
   ENCUT  =  300.0 eV  22.05 Ry    4.70 a.u.  11.70 11.70 11.94*2*pi/ulx,y,z
   ENINI  =  300.0     initial cutoff
   ENAUG  =  503.9 eV  augmentation charge cutoff
   NELM   =    200;   NELMIN=  2; NELMDL=  0     # of ELM steps
   EDIFF  = 0.1E-05   stopping-criterion for ELM
   LREAL  =      T    real-space projection
   NLSPLINE    = F    spline interpolate recip. space projectors
   LCOMPAT=      F    compatible to vasp.4.4
   GGA_COMPAT  = T    GGA compatible to vasp.4.4-vasp.4.6
   LMAXPAW     = -100 max onsite density
   LMAXMIX     =    2 max onsite mixed and CHGCAR
   VOSKOWN=      0    Vosko Wilk Nusair interpolation
   ROPT   =   -0.00025  -0.00025  -0.00025
 Ionic relaxation
   EDIFFG = -.1E-01   stopping-criterion for IOM
   NSW    =      0    number of steps for IOM
   NBLOCK =      1;   KBLOCK =      1    inner block; outer block
   IBRION =     -1    ionic relax: 0-MD 1-quasi-New 2-CG
   NFREE  =      1    steps in history (QN), initial steepest desc. (CG)
   ISIF   =      3    stress and relaxation
   IWAVPR =     10    prediction:  0-non 1-charg 2-wave 3-comb
   ISYM   =      2    0-nonsym 1-usesym 2-fastsym
   LCORR  =      T    Harris-Foulkes like correction to forces

   POTIM  = 0.5000    time-step for ionic-motion
   TEIN   =    0.0    initial temperature
   TEBEG  =    0.0;   TEEND  =   0.0 temperature during run
   SMASS  =  -3.00    Nose mass-parameter (am)
   estimated Nose-frequenzy (Omega)   =  0.10E-29 period in steps =****** mass=  -0.157E-26a.u.
   SCALEE = 1.0000    scale energy and forces
   NPACO  =    256;   APACO  = 16.0  distance and # of slots for P.C.
   PSTRESS=    0.0 pullay stress

  Mass of Ions in am
   POMASS = 132.90207.20 79.90
  Ionic Valenz
   ZVAL   =   9.00 14.00  7.00
  Atomic Wigner-Seitz radii
  virtual crystal weights
   VCA    =   1.00  1.00  1.00
   NELECT =      88.0000    total number of electrons
   NUPDOWN=      -1.0000    fix difference up-down

 DOS related values:
   EMIN   =  10.00;   EMAX   =-10.00  energy-range for DOS
   EFERMI =   0.00
   ISMEAR =     0;   SIGMA  =   0.01  broadening in eV -4-tet -1-fermi 0-gaus

 Electronic relaxation 2 (details)
   IALGO  =     38    algorithm
   LDIAG  =      T    sub-space diagonalisation (order eigenvalues)
   LSUBROT=      F    optimize rotation matrix (better conditioning)
   TURBO    =      0    0=normal 1=particle mesh
   IRESTART =      0    0=no restart 2=restart with 2 vectors
   NREBOOT  =      0    no. of reboots
   NMIN     =      0    reboot dimension
   EREF     =   0.00    reference energy to select bands
   IMIX   =      4    mixing-type and parameters
     AMIX     =   0.40;   BMIX     =  1.00
     AMIX_MAG =   1.60;   BMIX_MAG =  1.00
     AMIN     =   0.10
     WC   =   100.;   INIMIX=   1;  MIXPRE=   1;  MAXMIX= -45

 Intra band minimization:
[...]
  -0.33333333  0.33333333  0.25000000       0.111
  -0.33333333 -0.33333333  0.25000000       0.056
   0.00000000  0.00000000  0.50000000       0.028
   0.33333333  0.00000000  0.50000000       0.111
   0.33333333  0.33333333  0.50000000       0.056
  -0.33333333  0.33333333  0.50000000       0.056

 position of ions in fractional coordinates (direct lattice)
   0.75000000  0.75000000  0.74066585
   0.25000000  0.25000000  0.25933415
   0.00000000  0.00000000  0.00000000
   0.50000000  0.50000000  0.50000000
   0.20624461  0.70624461  0.29375539
   0.79375539  0.29375539  0.70624461
   0.29375539  0.79375539  0.70624461
   0.70624461  0.20624461  0.29375539
   0.25000000  0.25000000  0.82921774
   0.75000000  0.75000000  0.17078226

 position of ions in cartesian coordinates  (Angst):
   8.73798979  8.91022547 -8.91022547
   2.91266326  3.04446642 -3.04446642
   0.00000000  0.00000000 -0.00000000
   5.82532652  5.97734594 -5.97734594
   5.31554768  3.03171739 -5.93430152
   6.33510537  8.92297449 -6.02039037
   6.33510537  6.02039037 -8.92297449
   5.31554768  5.93430152 -3.03171739
   2.91266326  6.45085780 -6.45085780
   8.73798979  5.50383409 -5.50383409

 k-point  1 :   0.0000 0.0000 0.0000  plane waves:    4761
 k-point  2 :   0.3333 0.0000 0.0000  plane waves:    4765
 k-point  3 :   0.3333 0.3333 0.0000  plane waves:    4762
 k-point  4 :  -0.3333 0.3333 0.0000  plane waves:    4772
 k-point  5 :   0.0000 0.0000 0.2500  plane waves:    4770
 k-point  6 :   0.3333 0.0000 0.2500  plane waves:    4781
 k-point  7 :  -0.3333 0.0000 0.2500  plane waves:    4764
 k-point  8 :   0.3333 0.3333 0.2500  plane waves:    4752
 k-point  9 :  -0.3333 0.3333 0.2500  plane waves:    4771
 k-point 10 :  -0.3333-0.3333 0.2500  plane waves:    4785
 k-point 11 :   0.0000 0.0000 0.5000  plane waves:    4782
 k-point 12 :   0.3333 0.0000 0.5000  plane waves:    4777
 k-point 13 :   0.3333 0.3333 0.5000  plane waves:    4782
 k-point 14 :  -0.3333 0.3333 0.5000  plane waves:    4764

 maximum and minimum number of plane-waves per node :       619      579

 maximum number of plane-waves:      4785
 maximum index in each direction:
   IXMAX=   12   IYMAX=   12   IZMAX=   11
   IXMIN=  -12   IYMIN=  -12   IZMIN=  -12

 real space projection operators:
  max/ min on nodes  :        684.34        673.22

 parallel 3D FFT for wavefunctions:
    minimum data exchange during FFTs selected (reduces bandwidth)
 parallel 3D FFT for charge:
    minimum data exchange during FFTs selected (reduces bandwidth)

 Broyden mixing: mesh for mixing (old mesh)
   NGX = 23   NGY = 23   NGZ = 23
  (NGX  = 96   NGY  = 96   NGZ  = 96)
  gives a total of  12167 points

 initial charge density was supplied:
 charge density of overlapping atoms calculated
 number of electron      88.0000000 magnetization
 keeping initial charge density in first step

 Maximum index for non-local projection operator          862
 Maximum index for augmentation-charges         2567 (set IRDMAX)

 First call to EWALD:  gamma=   0.240
 Maximum number of real-space cells 3x 3x 3
 Maximum number of reciprocal cells 3x 3x 3

--------------------------------------- Iteration      1(   1)  ---------------------------------------

 eigenvalue-minimisations  :  1584
 total energy-change (2. order) : 0.3280513E+03  (-0.2815829E+04)
 number of electron      88.0000000 magnetization
 augmentation part       88.0000000 magnetization

 Free energy of the ion-electron system (eV)
  alpha Z        PSCENC =       223.12273183
  Ewald energy   TEWEN  =     -4596.59750729
  -Hartree energ DENC   =     -1840.40501266
  -exchange      EXHF   =         0.00000000
  -V(xc)+E(xc)   XCENC  =       230.97345403
  PAW double counting   =      5408.49043633    -5676.98046350
  entropy T*S    EENTRO =        -0.00059183
  eigenvalues    EBANDS =       -65.69181882
  atomic energy  EATOM  =      6645.14004964
  Solvation  Ediel_sol  =         0.00000000
  free energy    TOTEN  =       328.05127773 eV

  energy without entropy =      328.05186956  energy(sigma->0) =      328.05157365

[...]

 eigenvalue-minimisations  :  1928
 total energy-change (2. order) :-0.6244487E+03  (-0.6078300E+03)
 number of electron      88.0000000 magnetization
 augmentation part       88.0000000 magnetization

[...]

 Broyden mixing:
  rms(total) = 0.50432E+00    rms(broyden)= 0.50415E+00
  rms(prec ) = 0.95766E+00
  weight for this iteration     100.00

[...]

 eigenvalues of (default mixing * dielectric matrix)
  average eigenvalue GAMMA=   1.1865
  1.1865

[...]

 Broyden mixing:
  rms(total) = 0.11665E-03    rms(broyden)= 0.10898E-03
  rms(prec ) = 0.16936E-03
  weight for this iteration     100.00

[...]

 Broyden mixing:
  rms(total) = 0.77429E-04    rms(broyden)= 0.65340E-04
  rms(prec ) = 0.81394E-04
  weight for this iteration     100.00
  WARNING: grid for Broyden might be to small

[...]

 eigenvalue-minimisations  :  1096
 total energy-change (2. order) : 0.1006885E-05  (-0.2863750E-08)
 number of electron      88.0000000 magnetization
 augmentation part       -1.1626728 magnetization

 Broyden mixing:
  rms(total) = 0.43077E-04    rms(broyden)= 0.11421E-04
  rms(prec ) = 0.14127E-04
  weight for this iteration     100.00
  WARNING: grid for Broyden might be to small

 eigenvalues of (default mixing * dielectric matrix)
  average eigenvalue GAMMA=   1.7478
  3.5654  3.0149  2.5728  2.3835  1.8550  1.2650  1.1933  1.1933  1.0160  1.0160
  0.9374  0.9609

[...]

--------------------------------------- Iteration      1(  18)  ---------------------------------------

 eigenvalue-minimisations  :  1104
 total energy-change (2. order) :-0.1710968E-06  (-0.1140648E-08)
 number of electron      88.0000000 magnetization
 augmentation part       -1.1626728 magnetization

 Free energy of the ion-electron system (eV)
  alpha Z        PSCENC =       223.12273183
  Ewald energy   TEWEN  =     -4596.59750729
  -Hartree energ DENC   =     -1848.12349089
  -exchange      EXHF   =         0.00000000
  -V(xc)+E(xc)   XCENC  =       240.72555870
  PAW double counting   =      5780.77352876    -6048.89905211
  entropy T*S    EENTRO =        -0.00000000
  eigenvalues    EBANDS =      -753.55960346
  atomic energy  EATOM  =      6645.14004964
  Solvation  Ediel_sol  =         0.00000000
  free energy    TOTEN  =      -357.41778482 eV

  energy without entropy =     -357.41778482  energy(sigma->0) =     -357.41778482

 average (electrostatic) potential at core
  the test charge radii are     1.1312  1.1541  1.0178
  (the norm of the test charge is              1.0000)
       1 -55.3640       2 -55.3640       3-101.6056       4-101.6056       5 -68.9959
       6 -68.9959       7 -68.9959       8 -68.9959       9 -68.9692      10 -68.9692

 E-fermi :   0.6386     XC(G=0):  -8.0449     alpha+bet : -7.0009

 k-point     1 :       0.0000    0.0000    0.0000
  band No.  band energies     occupation
      1     -20.8850      2.00000
      2     -20.8808      2.00000
      3     -16.4353      2.00000
      4     -16.4319      2.00000
      5     -16.3409      2.00000
      6     -16.3374      2.00000
      7     -16.2724      2.00000
      8     -16.2706      2.00000
      9     -16.2694      2.00000
     10     -16.2683      2.00000
     11     -16.2604      2.00000
     12     -16.2584      2.00000
     13     -14.3569      2.00000
     14     -14.0453      2.00000
     15     -13.9940      2.00000
     16     -13.9891      2.00000
     17     -13.7391      2.00000
     18     -13.7258      2.00000
     19      -8.1851      2.00000
     20      -7.3316      2.00000
     21      -7.2929      2.00000
     22      -7.2783      2.00000
     23      -7.2714      2.00000
     24      -7.2643      2.00000
     25      -7.2637      2.00000
     26      -6.4819      2.00000
     27      -3.4077      2.00000
     28      -3.2694      2.00000
     29      -3.2184      2.00000
     30      -1.9165      2.00000
     31      -1.9088      2.00000
     32      -1.8930      2.00000
     33      -1.5224      2.00000
     34      -1.4395      2.00000
     35      -1.4344      2.00000
     36      -1.3623      2.00000
     37      -1.2151      2.00000
     38      -1.2058      2.00000
     39      -1.1561      2.00000
     40      -1.0783      2.00000
     41      -0.9725      2.00000
     42      -0.8956      2.00000
     43      -0.8894      2.00000
     44       0.5372      2.00000
     45       2.7720      0.00000
     46       2.7757      0.00000
     47       2.8642      0.00000
     48       4.7216      0.00000
     49       5.7433      0.00000
     50       6.0756      0.00000
     51       6.2476      0.00000
     52       6.4518      0.00000
     53       6.5020      0.00000
     54       6.5104      0.00000
     55       6.5376      0.00000
     56       6.7820      0.00000

[...]

 k-point    14 :      -0.3333    0.3333    0.5000
  band No.  band energies     occupation
      1     -20.8829      2.00000
      2     -20.8825      2.00000
      3     -16.4120      2.00000
      4     -16.4116      2.00000
      5     -16.3649      2.00000
      6     -16.3645      2.00000
      7     -16.2717      2.00000
      8     -16.2713      2.00000
      9     -16.2689      2.00000
     10     -16.2688      2.00000
     11     -16.2596      2.00000
     12     -16.2593      2.00000
     13     -14.1569      2.00000
     14     -14.1481      2.00000
     15     -13.9909      2.00000
     16     -13.9770      2.00000
     17     -13.8094      2.00000
     18     -13.8041      2.00000
     19      -7.4601      2.00000
     20      -7.4454      2.00000
     21      -7.2806      2.00000
     22      -7.2653      2.00000
     23      -7.2643      2.00000
     24      -7.2544      2.00000
     25      -7.2415      2.00000
     26      -7.2280      2.00000
     27      -3.0910      2.00000
     28      -3.0764      2.00000
     29      -2.5066      2.00000
     30      -2.3923      2.00000
     31      -2.0115      2.00000
     32      -2.0107      2.00000
     33      -1.6844      2.00000
     34      -1.6384      2.00000
     35      -1.5156      2.00000
     36      -1.3763      2.00000
     37      -1.3422      2.00000
     38      -1.2853      2.00000
     39      -1.2269      2.00000
     40      -1.1901      2.00000
     41      -1.1135      2.00000
     42      -1.0868      2.00000
     43      -0.5865      2.00000
     44      -0.5792      2.00000
     45       3.5085      0.00000
     46       3.5487      0.00000
     47       4.6556      0.00000
     48       4.6776      0.00000
     49       5.7047      0.00000
     50       5.7644      0.00000
     51       6.1899      0.00000
     52       6.4603      0.00000
     53       6.6907      0.00000
     54       6.7126      0.00000
     55       6.8957      0.00000
     56       6.9374      0.00000

 soft charge-density along one line, spin component           1
         0         1         2         3         4         5         6         7         8         9
 total charge-density along one line

------------------------ aborting loop because EDIFF is reached ----------------------------------------

 total charge

# of ion       s       p       d       tot
    1        1.784   4.718   0.016   6.519
    2        1.784   4.718   0.016   6.519
    3        1.552   0.426   9.834  11.812
    4        1.552   0.426   9.834  11.812
    5        1.615   3.280   0.007   4.901
    6        1.615   3.280   0.007   4.901
    7        1.614   3.287   0.006   4.908
    8        1.614   3.287   0.006   4.908
    9        1.615   3.283   0.006   4.904
   10        1.615   3.283   0.006   4.904
tot         16.360  29.990  19.739  66.088

  FORCE on cell =-STRESS in cart. coord.  units (eV):
  Direction    XX          YY          ZZ          XY          YZ          ZX
  Alpha Z   223.12273   223.12273   223.12273
  Ewald   -1524.55673 -1536.02411 -1536.02411    -0.00000   -50.80825     0.00000
  Hartree   630.69896   608.71217   608.71217     0.00000   -29.39334    -0.00000
  E(xc)    -369.46554  -369.45251  -369.41237    -0.02044    -0.03268    -0.01826
  Local    -738.63145  -705.27757  -705.27757    -0.00030    79.57926     0.00030
  n-local   450.16116   450.07277   450.10123     0.04925    -0.35392     0.06313
  augment   203.22016   203.11596   203.11596    -0.00098    -0.21412     0.00098
  Kinetic  1124.99275  1124.54802  1126.07493    -0.65932     1.22494    -0.65410
  Fock        0.00000     0.00000     0.00000     0.00000     0.00000     0.00000
  Total      -0.45795    -0.38478    -0.38478     0.00000     0.00189     0.00000
  in kB      -1.81493    -1.52494    -1.52494     0.00000     0.00748     0.00000

 VOLUME and BASIS-vectors are now :
  energy-cutoff  :      300.00
  volume of cell :      404.27
      direct lattice vectors                 reciprocal lattice vectors
     5.825326525  5.891257096 -0.086088846     0.085832098  0.086130148  0.086130148
     5.825326525  0.086088846 -5.891257096     0.085832098 -0.086130148 -0.086130148
    -0.000000000  5.977345943 -5.977345943    -0.085832098  0.083649166 -0.083649166

  length of vectors
     8.285454157  8.285454157  8.453243699     0.149009912  0.149009912  0.146155790

 FORCES acting on ions
    electron-ion (+dipol)            ewald-force                    non-local-force                 convergence-correction
   0.435E-04 -.112E+02 0.112E+02   -.394E-13 0.111E+02 -.111E+02   0.339E-20 0.134E+00 -.134E+00   -.254E-09 -.185E-04 0.185E-04
   -.435E-04 0.112E+02 -.112E+02   0.392E-13 -.111E+02 0.111E+02   0.000E+00 -.134E+00 0.134E+00   0.254E-09 0.185E-04 -.185E-04
   -.586E-13 -.777E-11 0.936E-11   0.568E-13 -.497E-13 -.142E-13   0.000E+00 -.662E-23 0.000E+00   -.399E-13 0.165E-13 -.379E-14
   0.777E-11 -.873E-11 0.141E-10   0.284E-13 -.568E-13 -.355E-13   0.000E+00 0.132E-22 0.000E+00   -.119E-12 -.655E-13 0.142E-13
   0.170E+02 -.774E-05 0.456E-05   -.172E+02 0.400E-13 0.195E-13   0.219E+00 -.694E-17 0.867E-17   -.170E-04 0.727E-09 -.219E-10
   -.170E+02 0.774E-05 -.456E-05   0.172E+02 0.666E-13 -.147E-13   -.219E+00 0.347E-17 -.121E-16   0.170E-04 -.727E-09 0.219E-10
   -.170E+02 0.456E-05 -.774E-05   0.172E+02 0.182E-13 0.400E-13   -.219E+00 0.520E-17 -.104E-16   0.170E-04 -.219E-10 0.727E-09
   0.170E+02 -.456E-05 0.774E-05   -.172E+02 -.622E-14 0.799E-14   0.219E+00 -.520E-17 0.694E-17   -.170E-04 0.219E-10 -.727E-09
   0.358E-05 -.287E+02 0.287E+02   -.173E-13 0.289E+02 -.289E+02   0.339E-20 -.183E+00 0.183E+00   -.107E-08 -.220E-04 0.220E-04
   -.358E-05 0.287E+02 -.287E+02   -.385E-13 -.289E+02 0.289E+02   0.339E-20 0.183E+00 -.183E+00   0.107E-08 0.220E-04 -.220E-04
   0.454E-10 -.749E-10 0.405E-10   0.109E-14 -.107E-13 -.355E-14   -.277E-16 0.278E-16 0.278E-16   -.173E-12 -.295E-13 -.781E-14

 POSITION                                       TOTAL-FORCE (eV/Angst)
      8.73799      8.91023     -8.91023         0.000000      0.003477     -0.003477
      2.91266      3.04447     -3.04447         0.000000     -0.003477      0.003477
      0.00000      0.00000     -0.00000         0.000000      0.000000     -0.000000
      5.82533      5.97735     -5.97735         0.000000      0.000000     -0.000000
      5.31555      3.03172     -5.93430         0.018207     -0.000000      0.000000
      6.33511      8.92297     -6.02039        -0.018207      0.000000     -0.000000
      6.33511      6.02039     -8.92297        -0.018207      0.000000     -0.000000
      5.31555      5.93430     -3.03172         0.018207     -0.000000      0.000000
      2.91266      6.45086     -6.45086         0.000000      0.000210     -0.000210
      8.73799      5.50383     -5.50383         0.000000     -0.000210      0.000210
    total drift:                                0.000000     -0.000000      0.000000

  FREE ENERGIE OF THE ION-ELECTRON SYSTEM (eV)
  free  energy   TOTEN  =      -357.41778482 eV

  energy  without entropy=     -357.41778482  energy(sigma->0) =     -357.41778482

 stress matrix after NEB project (eV)
     -0.45795      0.00000      0.00000
      0.00000     -0.38478      0.00189
      0.00000      0.00189     -0.38478
  FORCES: max atom, RMS     0.018207    0.011724
  FORCE total and by dimension    0.037075    0.018207
  Stress total and by dimension    0.711227    0.457954

 total charge

# of ion       s       p       d       tot
    1        1.784   4.718   0.016   6.519
    2        1.784   4.718   0.016   6.519
    3        1.552   0.426   9.834  11.812
    4        1.552   0.426   9.834  11.812
    5        1.615   3.280   0.007   4.901
    6        1.615   3.280   0.007   4.901
    7        1.614   3.287   0.006   4.908
    8        1.614   3.287   0.006   4.908
    9        1.615   3.283   0.006   4.904
   10        1.615   3.283   0.006   4.904
tot         16.360  29.990  19.739  66.088